# Compound: Fe32Li31O16S32. Old comment:
   1.0000000000000000     
     7.6911861600000000   -7.6885056399999998    0.0000000100000000
     7.6884112800000004    7.6911136200000003   -0.0126780500000000
    -3.8335882400000001   -3.8349345399999999   12.8627506399999998
   Fe   Li   O    S 
    32    31    16    32
Direct
  0.9741859870982946  0.0796042242011736  0.1595815524791676
  0.2254875599223913  0.3305194266959094  0.1592907164183488
  0.7255501201488381  0.3295181294072883  0.1583475404200609
  0.9733603848446064  0.5792839926308843  0.1585914240095431
  0.9751316266904769  0.4226927789049266  0.3416071308100633
  0.2269007435626531  0.6717307901308336  0.3414366589611723
  0.7142881359745973  0.6669222989777315  0.3465649491965181
  0.9743176856787170  0.9185546160479161  0.3413548647625366
  0.9742821510851662  0.0771779323878131  0.6586545952880337
  0.2256664774777545  0.3287831414837131  0.6584780253200385
  0.7227402359649120  0.3280522384042017  0.6583650083374076
  0.9751603650579630  0.5810423792758491  0.6583774038439838
  0.9741901337467959  0.4200136962260037  0.8404228651100658
  0.2254648808359570  0.6712112528848709  0.8406991827557385
  0.7255483075926242  0.6710651039529744  0.8416527214257084
  0.9733543783315571  0.9206805724643409  0.8414122342617286
  0.4731948648219254  0.5787471800183462  0.1549062527429778
  0.7234266932529173  0.8275770888113311  0.1589971832353280
  0.2233539514647430  0.8283720208192501  0.1579480399132776
  0.4742367498254730  0.0804812734284458  0.1606182643683013
  0.4730871955097649  0.9175535725397184  0.3415273035968157
  0.7227140670597626  0.1696976680051910  0.3416363110930014
  0.2256672556097873  0.1702241481651992  0.3415257666187316
  0.4809062358161330  0.4338034352938201  0.3467175417851562
  0.4809443792170615  0.5870838688223894  0.6532694292014729
  0.7142862121079777  0.8202786791139545  0.6534442310817322
  0.2268810653491644  0.8303282217256526  0.6585554886879498
  0.4730777690547070  0.0760370975187985  0.6584820754090013
  0.4731909295043185  0.9238357200169577  0.8450889084081099
  0.7234304894763438  0.1685332429963783  0.8410063109364733
  0.2233519298282305  0.1704079443055971  0.8420510376746035
  0.4742387941158999  0.4198776455383966  0.8393763201979573
  0.0810553006076590  0.1431551321568163  0.0009518468960601
  0.8677815810336242  0.8571073309364269  0.0009641878668012
  0.8677927917643035  0.3561254500149867  0.9990206996815877
  0.0810617748823887  0.6421932510273262  0.9990501888256790
  0.1144730257868952  0.3893779035161342  0.4999759614920168
  0.3230228416465030  0.5925033250502532  0.5000030749848671
  0.8210186583108342  0.6034568711081075  0.4999953331962806
  0.6199961834604008  0.4019857065692607  0.4999919969181201
  0.0820134700729152  0.1418319282324300  0.5000180322926121
  0.8775766905094181  0.8512170763411515  0.5000045849303483
  0.8667133592666343  0.3573216050822770  0.4999936803732234
  0.0806032687252585  0.6448004171170297  0.4999991500605214
  0.1170875302836842  0.3925661760112583  0.0001085353674797
  0.3298473638261458  0.6042917970940002 -0.0022109969629054
  0.8314183105784316  0.6069739227688147 -0.0000058248859882
  0.6194086623803274  0.3938527612377839 -0.0013790190082793
  0.5804191489487693  0.6430708247530678  0.9971626200350421
  0.3683333886607022  0.3546576942278759 -0.0012899193532518
  0.3683341838196774  0.8559267952680524  1.0012725464795136
  0.5804289255003073  0.1459054353271632  0.0028544307807549
  0.6317877217769844  0.9007827246484175  0.5000244224260568
  0.8347605524112324  0.1091152920068546  0.4999985855666419
  0.3299491470611628  0.0967544725789801  0.5000164108027495
  0.1278074249718646  0.8947563091294948  0.5000019473608115
  0.3720594757847936  0.3472783638753120  0.4999965257241549
  0.3957145085718584  0.8283668704193570  0.5000030097407876
  0.5799683664388540  0.1427415876956955  0.5000057647207107
  0.6194156894784872  0.8952159088731589  1.0013540013518114
  0.8314142529711266  0.1069953339894951  1.0000330654974452
  0.3298508623017349  0.1064950427616538  1.0022094873731073
  0.1170829760932778  0.8924544606127593  0.9998904790800817
  0.2254576407891491  0.2461348701356761  0.5000021378641998
  0.4748443194942834  0.4985511634353046  0.9979801257177219
  0.9742032438755028  0.4996234653036456 -0.0003342620241083
  0.2323883866188580  0.7467503346226244  0.4999982505208098
  0.2245733474971392  0.2495465456847833  0.0005917217995729
  0.4677497807585000  0.4923555055150098  0.4999965799040635
  0.9716439172699726  0.5015214825026435  0.4999929280989290
  0.2245715688370099  0.7489522563623463  0.9994032724898134
  0.7320633709855110  0.7562642894268868  0.5000078695588537
  0.9742018382371040  0.9999625177462282  1.0003375473822163
  0.4748450417824656  0.0005601288733513  0.0020145664521399
  0.7229070010654275  0.2520724921861241  0.4999986136321884
  0.7241633766264268  0.7502734846328264  0.0001458392476696
  0.9779687227262353 -0.0017353238841186  0.5000048436865558
  0.4774912969524758  0.9913351670747502  0.5000051498298722
  0.7241641645164709  0.2501343488987997  0.9998549969611947
  0.9737377637909537  0.3255429176758967  0.1517987084535129
  0.2249998166643571  0.5747571273864256  0.1510376591354158
  0.7260233368221075  0.5770521363003042  0.1543225049600597
  0.9749719773851377  0.8256912705101226  0.1513960605629193
  0.9745217231713371  0.1740958184390126  0.3490891099312154
  0.2198141332159871  0.4207825256400427  0.3474606058016370
  0.7251328061755372  0.4222076768665027  0.3466935391165732
  0.9808224069287373  0.6736573139164439  0.3470150891430879
  0.9745180517008928  0.3250162003520825  0.6509138997126311
  0.2198028982346528  0.5733163612538728  0.6525286877495780
  0.7251374793908614  0.5754996111693403  0.6532999963445471
  0.9808239358059476  0.8266365640455556  0.6529872662569147
  0.9749728685493515  0.1743019913691224  0.8486071665207399
  0.2237918195576121  0.4225745453894888  0.8481174387443610
  0.7249234953642522  0.4250163415773656  0.8482104553633374
  0.9737392785057363  0.6737422686248172  0.8481953356887730
  0.4753495766029264  0.8245070333396458  0.1510429396583233
  0.7249172466701397  0.0767935583312588  0.1517918373446241
  0.2237931073572149  0.0744539003194687  0.1518833713567950
  0.4733464883214001  0.3256796435657948  0.1548756263264744
  0.4766465218428859  0.6680445629851374  0.3407548197414694
  0.7271611836687147  0.9274562341642514  0.3472091133004439
  0.2254039179930704  0.9217699839801679  0.3463194410162639
  0.4739585367146923  0.1671471531582185  0.3479898657774976
  0.4766496463078727  0.8272879728235744  0.6592433982146070
  0.7271640793633687  0.0802759032923250  0.6527996412324215
  0.2254015246041171  0.0754477100909000  0.6536842978622427
  0.4739550392780434  0.3191594360207322  0.6520085801005600
  0.4733489150625217  0.6707980911183682  0.8451147818404584
  0.7260297273024681  0.9227303019334271  0.8456801352949710
  0.2249997319801816  0.9237161255313709  0.8489578051722363
  0.4753550703362321  0.1734679391559252  0.8489613840049808

             NaN             NaN             NaN
             NaN             NaN             NaN
             NaN             NaN             NaN
             NaN             NaN             NaN
             NaN             NaN             NaN
             NaN             NaN             NaN
             NaN             NaN             NaN
             NaN             NaN             NaN
             NaN             NaN             NaN
             NaN             NaN             NaN
             NaN             NaN             NaN
             NaN             NaN             NaN
             NaN             NaN             NaN
             NaN             NaN             NaN
             NaN             NaN             NaN
             NaN             NaN             NaN
             NaN             NaN             NaN
             NaN             NaN             NaN
             NaN             NaN             NaN
             NaN             NaN             NaN
             NaN             NaN             NaN
             NaN             NaN             NaN
             NaN             NaN             NaN
             NaN             NaN             NaN
             NaN             NaN             NaN
             NaN             NaN             NaN
             NaN             NaN             NaN
             NaN             NaN             NaN
             NaN             NaN             NaN
             NaN             NaN             NaN
             NaN             NaN             NaN
             NaN             NaN             NaN
             NaN             NaN             NaN
             NaN             NaN             NaN
             NaN             NaN             NaN
             NaN             NaN             NaN
             NaN             NaN             NaN
             NaN             NaN             NaN
             NaN             NaN             NaN
             NaN             NaN             NaN
             NaN             NaN             NaN
             NaN             NaN             NaN
             NaN             NaN             NaN
             NaN             NaN             NaN
             NaN             NaN             NaN
             NaN             NaN             NaN
             NaN             NaN             NaN
             NaN             NaN             NaN
             NaN             NaN             NaN
             NaN             NaN             NaN
             NaN             NaN             NaN
             NaN             NaN             NaN
             NaN             NaN             NaN
             NaN             NaN             NaN
             NaN             NaN             NaN
             NaN             NaN             NaN
             NaN             NaN             NaN
             NaN             NaN             NaN
             NaN             NaN             NaN
             NaN             NaN             NaN
             NaN             NaN             NaN
             NaN             NaN             NaN
             NaN             NaN             NaN
             NaN             NaN             NaN
             NaN             NaN             NaN
             NaN             NaN             NaN
             NaN             NaN             NaN
             NaN             NaN             NaN
             NaN             NaN             NaN
             NaN             NaN             NaN
             NaN             NaN             NaN
             NaN             NaN             NaN
             NaN             NaN             NaN
             NaN             NaN             NaN
             NaN             NaN             NaN
             NaN             NaN             NaN
             NaN             NaN             NaN
             NaN             NaN             NaN
             NaN             NaN             NaN
             NaN             NaN             NaN
             NaN             NaN             NaN
             NaN             NaN             NaN
             NaN             NaN             NaN
             NaN             NaN             NaN
             NaN             NaN             NaN
             NaN             NaN             NaN
             NaN             NaN             NaN
             NaN             NaN             NaN
             NaN             NaN             NaN
             NaN             NaN             NaN
             NaN             NaN             NaN
             NaN             NaN             NaN
             NaN             NaN             NaN
             NaN             NaN             NaN
             NaN             NaN             NaN
             NaN             NaN             NaN
             NaN             NaN             NaN
             NaN             NaN             NaN
             NaN             NaN             NaN
             NaN             NaN             NaN
             NaN             NaN             NaN
             NaN             NaN             NaN
             NaN             NaN             NaN
             NaN             NaN             NaN
             NaN             NaN             NaN
             NaN             NaN             NaN
             NaN             NaN             NaN
             NaN             NaN             NaN
             NaN             NaN             NaN
             NaN             NaN             NaN
             NaN             NaN             NaN
