# Compound: Fe32Li31O16S32. Old comment: Fe32Li31O16S32
  1.0000000000
  7.6911861600  -7.6885056400   0.0000000100
  7.6884112800   7.6911136200  -0.0126780500
 -3.8335882400  -3.8349345400  12.8627506400
Fe    Li    O     S
   32    31    16    32
Direct
  0.9739149708   0.0794457286   0.1586939721
  0.2246827384   0.3296535027   0.1594363121
  0.7243490250   0.3287245545   0.1583200545
  0.9734954374   0.5797454964   0.1592909771
  0.9747095868   0.4215524704   0.3414062959
  0.2248640703   0.6732781910   0.3422819310
  0.7169410021   0.6669783898   0.3462865419
  0.9734840666   0.9202063309   0.3412347591
  0.9734798841   0.0789630892   0.6587812215
  0.2247623326   0.3299266867   0.6587989096
  0.7229016122   0.3286197268   0.6587146184
  0.9747392848   0.5801789494   0.6585997758
  0.9739073088   0.4207080451   0.8412855704
  0.2246775423   0.6702286408   0.8405583055
  0.7243610281   0.6704067771   0.8416770225
  0.9734975304   0.9204457673   0.8407072985
  0.4733795611   0.5798547363   0.1579844499
  0.7236975998   0.8294638183   0.1594158312
  0.2239446777   0.8297772401   0.1586262019
  0.4739945075   0.0799400823   0.1590940338
  0.4720614758   0.9205904149   0.3421656969
  0.7228936685   0.1699155170   0.3412948062
  0.2247652763   0.1711025308   0.3411978113
  0.4803562652   0.4300781446   0.3462498160
  0.4803652493   0.5838677850   0.6537746598
  0.7169305320   0.8206882433   0.6537239836
  0.2248620943   0.8309954959   0.6577421788
  0.4720569239   0.0784258100   0.6578482420
  0.4733834673   0.9218712084   0.8420225811
  0.7236954335   0.1699973640   0.8405799935
  0.2239285494   0.1710774082   0.8413551254
  0.4739819623   0.4208195865   0.8408900993
  0.0811771116   0.1430370229   0.0001217889
  0.8671846641   0.8568438735   0.0002722608
  0.8671860933   0.3565422986   0.9996930624
  0.0811776804   0.6429094792   0.9998524020
  0.1173873860   0.3934996826   0.5000129014
  0.3375838587   0.6083972390   0.5000059167
  0.8240791225   0.6040937041   0.5000076693
  0.6199659679   0.3998143441   0.5000248077
  0.0806048714   0.1436022612   0.5000144477
  0.8692362566   0.8563736920   0.5000203853
  0.8678418728   0.3559954118   0.5000051722
  0.0811763502   0.6430266192   0.5000200105
  0.1170235926   0.3931831058   0.0004957879
  0.3306008948   0.6065867086   0.0000841801
  0.8309530497   0.6072248341   0.0006017583
  0.6175992788   0.3937852165   0.0003363229
  0.5805005960   0.6434411452   0.9997220768
  0.3676573478   0.3568731185   0.0003109398
  0.3676599519   0.8565602513   0.9996673034
  0.5805019964   0.1437133650   0.0002733789
  0.6156295063   0.8868746654   0.5000095536
  0.8303890844   0.1068584712   0.5000062657
  0.3298599872   0.1034097042   0.5000058699
  0.1206934087   0.8944076099   0.5000132110
  0.3679215101   0.3546646037   0.5000041366
  0.4037066255   0.8205977736   0.5000152597
  0.5809157983   0.1430408992   0.5000082654
  0.6175933437   0.8934467547   0.9996575777
  0.8309562265   0.1066026896   0.9993747303
  0.3306013329   0.1064876879   0.9998928530
  0.1170166199   0.8926801714   0.9994788270
  0.2239326105   0.2495239773   0.5000127575
  0.4742679770   0.5000961503   0.9999250025
  0.9738369536   0.5001525174   0.0003559143
  0.2279595151   0.7494528444   0.5000175019
  0.2244776647   0.2502969603   0.0004440067
  0.4708304785   0.4945857903   0.5000206235
  0.9727606337   0.5004139361   0.5000163734
  0.2244808081   0.7498477520   0.9995181515
  0.7293096048   0.7533315512   0.5000318320
  0.9738366293   0.9997783738   0.9995998755
  0.4742666061   0.0001588148   0.0000399334
  0.7235122919   0.2512977342   0.5000192181
  0.7237904378   0.7500257701   0.0003024311
  0.9745588595   0.0003400059   0.5000197138
  0.4746687531   0.9962780141   0.5000173087
  0.7237913545   0.2496908131   0.9996516474
  0.9740795999   0.3256340410   0.1517487421
  0.2242988279   0.5764215775   0.1523286210
  0.7239387275   0.5770497053   0.1546417053
  0.9740885456   0.8260733104   0.1514750242
  0.9740357885   0.1740431161   0.3479424665
  0.2225465500   0.4240503968   0.3480570432
  0.7257958707   0.4213423911   0.3464170156
  0.9765430720   0.6742140359   0.3475694675
  0.9740410813   0.3260978825   0.6520561382
  0.2225271309   0.5760139372   0.6519512622
  0.7258248992   0.5749570107   0.6535873405
  0.9765601827   0.8266489355   0.6524506582
  0.9740947359   0.1745534708   0.8485161791
  0.2238332521   0.4244149601   0.8486053438
  0.7242389063   0.4242468581   0.8486882624
  0.9740924162   0.6739189136   0.8482332938
  0.4739819289   0.8258849529   0.1518535277
  0.7242295770   0.0755526421   0.1512931938
  0.2238431378   0.0758025866   0.1513713903
  0.4742471916   0.3273126403   0.1545214124
  0.4753163201   0.6708562009   0.3442106858
  0.7239948311   0.9255948936   0.3479884982
  0.2232758322   0.9243122740   0.3467280851
  0.4736534441   0.1712723740   0.3473702407
  0.4753107252   0.8266619523   0.6557985304
  0.7240080380   0.0775938941   0.6520203628
  0.2232622274   0.0775624990   0.6532810250
  0.4736449318   0.3238952659   0.6526286699
  0.4742442739   0.6728208027   0.8454651991
  0.7239574744   0.9224081442   0.8453525029
  0.2242848923   0.9240970217   0.8476626846
  0.4739692281   0.1739933416   0.8481405414
