# Compound: Fe32Li31O16S32. Old comment:
   1.0000000000000000     
     7.6911861600000000   -7.6885056399999998    0.0000000100000000
     7.6884112800000004    7.6911136200000003   -0.0126780500000000
    -3.8335882400000001   -3.8349345399999999   12.8627506399999998
   Fe   Li   O    S 
    32    31    16    32
Direct
  0.9740509910012750  0.0799764648356334  0.1598517648487923
  0.2248815067658387  0.3316239420036732  0.1587932852453677
  0.7256312743835814  0.3298639643929458  0.1581023437017298
  0.9743883498486052  0.5792175781387757  0.1584937992746528
  0.9740762984471240  0.4232400225345062  0.3415193984801814
  0.2330153221435074  0.6774807070143217  0.3454969781762439
  0.7175807101786708  0.6682215618645991  0.3427222747423834
  0.9737486009048908  0.9183447471466082  0.3416300886353391
  0.9737291571162897  0.0767004564477227  0.6583755877712714
  0.2256538459953724  0.3293924377400624  0.6582171723252409
  0.7225604620467663  0.3293425992584354  0.6582699823846836
  0.9740992987342870  0.5816836838356615  0.6584704864197369
  0.9740550715477897  0.4201112417391416  0.8401503021791518
  0.2248545118229681  0.6728719282919068  0.8412037014101359
  0.7256199501693648  0.6716668802847686  0.8418926995737304
  0.9743812859042893  0.9206900746965471  0.8415072807443751
  0.4746668144506129  0.5747322621674632  0.1506907264103791
  0.7230470684648622  0.8275479092192556  0.1588715448957072
  0.2225954211056487  0.8282856476908731  0.1582896272495281
  0.4740504117764807  0.0808733040102282  0.1620665775187346
  0.4689903616595348  0.9130429571984486  0.3457360939294727
  0.7225525337739108  0.1710664299356464  0.3417255295008667
  0.2256438333931266  0.1710940163748880  0.3417808069600258
  0.4774628390204145  0.4288514306041026  0.3429365310005147
  0.4774455403627674  0.5859113452963427  0.6570642256765424
  0.7175730103735137  0.8254760190505277  0.6572872998635004
  0.2330101946918144  0.8319902884899948  0.6544814529574061
  0.4689761639895232  0.0673217762684161  0.6542817802322212
  0.4746516961888759  0.9240522746025985  0.8493105473080524
  0.7230365740660911  0.1686378709949616  0.8411300069364619
  0.2225694485455117  0.1699911206202638  0.8417117500948532
  0.4740367232023490  0.4188345053278529  0.8379330895244393
  0.0805218434269910  0.1434193940574242  0.0009128375110558
  0.8676055564375555  0.8575640611238899  0.0009634685993145
  0.8676188813909448  0.3565822370352811  0.9990241516084930
  0.0805317913552412  0.6424953347452742  0.9990848688668812
  0.1117405043330045  0.3884947858343464  0.4999798340023568
  0.3078231949206808  0.5884944975744627  0.4999931607874282
  0.8174657774923509  0.6056324139590020  0.4999987238761531
  0.6178798927723439  0.4059194219201175  0.5000051160868904
  0.0827664502056015  0.1411306242126440  0.5000139873324947
  0.8708675945905390  0.8528815594171590  0.5000101155887495
  0.8654724894658176  0.3589100388166887  0.4999984851404262
  0.0720136849056959  0.6484222219484442  0.4999936837830461
  0.1167410228943610  0.3927003336166379 -0.0002096116391638
  0.3285855999737213  0.6039720027737777 -0.0029998171226380
  0.8314420916890762  0.6072059046022740 -0.0002026262568327
  0.6192405912983583  0.3927810324593201 -0.0033485100917209
  0.5804201817631361  0.6434334927136165 -0.0032252390755316
  0.3676505242680886  0.3532061468811536  0.9963277220250802
  0.3676589290315740  0.8568626835103947  0.0036703790390467
  0.5804368990302704  0.1466494837631408  1.0032431078496058
  0.6362549334460957  0.9160310465056857  0.5000082705532435
  0.8361211330150289  0.1119997689665709  0.4999921526004771
  0.3299674037599699  0.0955029206725430  0.5000094127783850
  0.1294768544422883  0.8947060089156197  0.5000003219352961
  0.3700627160517078  0.3543162675316251  0.4999866052758618
  0.5158803205008947  0.7087467020259016  0.5000020014918969
  0.5767765352770733  0.1509787808532822  0.5000062435972515
  0.6192535562460797  0.8961138654600996  1.0033145582082814
  0.8314417216569221  0.1074251180930984  1.0002234827495011
  0.3285955787633699  0.1069678419825049  1.0029994871857648
  0.1167371409443471  0.8929203831711700  1.0002231663157650
  0.2260048236017900  0.2465939828066047  0.4999997324579200
  0.4738158102890336  0.4982711963510280  0.9960236949395935
  0.9740094078237149  0.4996950149993735 -0.0006186761509931
  0.2214499570706225  0.7411283243925209  0.4999918307764064
  0.2240398710021693  0.2495057365338986  0.0002123082413028
  0.4672119416800417  0.5112544619538928  0.4999997696474140
  0.9696060598206714  0.5022457868136062  0.4999953144980337
  0.2240389379055273  0.7492995025679658  0.9997872086023358
  0.7133493524759241  0.7567829385357454  0.5000055021284889
  0.9740082932543721  1.0003165942102077  1.0006206004570648
  0.4738187249673250  0.0022359886219367  0.0039758219516981
  0.7223706305914960  0.2543175861194185  0.4999981286712730
  0.7240953873396061  0.7508777628094153  0.0003603056232998
  0.9777189111915608  0.9975256093186271  0.5000028732940308
  0.4831238079022681  0.0019657823555526  0.5000079015293606
  0.7240967854486340  0.2505238842742117  0.9996382935772741
  0.9731585875723485  0.3255004565449104  0.1514745788353803
  0.2222011320507107  0.5759801077477784  0.1526895490970631
  0.7243326164882607  0.5762836215515346  0.1513910066744139
  0.9749306039989160  0.8260528949717347  0.1517016408446077
  0.9739782842572364  0.1748649626667952  0.3495672194522606
  0.2191215211691087  0.4177045869168703  0.3464640330221743
  0.7227976202673810  0.4244578793757033  0.3462630669764898
  0.9703657804941132  0.6734163406942231  0.3472099868516535
  0.9739772584212967  0.3253054428330327  0.6504338746383338
  0.2191201643566890  0.5712393794729653  0.6535284023265282
  0.7227973442208546  0.5781905243184436  0.6537350597981963
  0.9703736717049520  0.8261975844377116  0.6527905999732266
  0.9749328113973552  0.1743564941505924  0.8482995910625697
  0.2233231914145487  0.4221222962545085  0.8479050460331856
  0.7247321849016918  0.4258806669299630  0.8479000903094338
  0.9731624090409737  0.6740263462507790  0.8485212373455978
  0.4756999766929776  0.8282654441018442  0.1534473522776838
  0.7247274123070082  0.0779717502767764  0.1520966955643488
  0.2233231714136050  0.0742168102853755  0.1520937384299584
  0.4724419541806240  0.3260024536824562  0.1518941710930074
  0.4710027966369715  0.6693732558659931  0.3331119364091680
  0.7298978613727458  0.9280916015943300  0.3465465656472044
  0.2243788687374472  0.9230409562934442  0.3465894565396258
  0.4742699696386798  0.1780970234954405  0.3488388902331280
  0.4710020156448058  0.8362619812908734  0.6668902934687659
  0.7299019041975584  0.0815569460314964  0.6534579590615067
  0.2243767829578711  0.0764471367357001  0.6534133675267754
  0.4742668324119038  0.3292675836567109  0.6511599628465558
  0.4724403823879006  0.6741102843911797  0.8481049064822911
  0.7243392071739213  0.9248987257475424  0.8486126432908798
  0.2222018711418551  0.9232862352883581  0.8473029037263965
  0.4757056445481914  0.1748254783534552  0.8465622014575973

             NaN             NaN             NaN
             NaN             NaN             NaN
             NaN             NaN             NaN
             NaN             NaN             NaN
             NaN             NaN             NaN
             NaN             NaN             NaN
             NaN             NaN             NaN
             NaN             NaN             NaN
             NaN             NaN             NaN
             NaN             NaN             NaN
             NaN             NaN             NaN
             NaN             NaN             NaN
             NaN             NaN             NaN
             NaN             NaN             NaN
             NaN             NaN             NaN
             NaN             NaN             NaN
             NaN             NaN             NaN
             NaN             NaN             NaN
             NaN             NaN             NaN
             NaN             NaN             NaN
             NaN             NaN             NaN
             NaN             NaN             NaN
             NaN             NaN             NaN
             NaN             NaN             NaN
             NaN             NaN             NaN
             NaN             NaN             NaN
             NaN             NaN             NaN
             NaN             NaN             NaN
             NaN             NaN             NaN
             NaN             NaN             NaN
             NaN             NaN             NaN
             NaN             NaN             NaN
             NaN             NaN             NaN
             NaN             NaN             NaN
             NaN             NaN             NaN
             NaN             NaN             NaN
             NaN             NaN             NaN
             NaN             NaN             NaN
             NaN             NaN             NaN
             NaN             NaN             NaN
             NaN             NaN             NaN
             NaN             NaN             NaN
             NaN             NaN             NaN
             NaN             NaN             NaN
             NaN             NaN             NaN
             NaN             NaN             NaN
             NaN             NaN             NaN
             NaN             NaN             NaN
             NaN             NaN             NaN
             NaN             NaN             NaN
             NaN             NaN             NaN
             NaN             NaN             NaN
             NaN             NaN             NaN
             NaN             NaN             NaN
             NaN             NaN             NaN
             NaN             NaN             NaN
             NaN             NaN             NaN
             NaN             NaN             NaN
             NaN             NaN             NaN
             NaN             NaN             NaN
             NaN             NaN             NaN
             NaN             NaN             NaN
             NaN             NaN             NaN
             NaN             NaN             NaN
             NaN             NaN             NaN
             NaN             NaN             NaN
             NaN             NaN             NaN
             NaN             NaN             NaN
             NaN             NaN             NaN
             NaN             NaN             NaN
             NaN             NaN             NaN
             NaN             NaN             NaN
             NaN             NaN             NaN
             NaN             NaN             NaN
             NaN             NaN             NaN
             NaN             NaN             NaN
             NaN             NaN             NaN
             NaN             NaN             NaN
             NaN             NaN             NaN
             NaN             NaN             NaN
             NaN             NaN             NaN
             NaN             NaN             NaN
             NaN             NaN             NaN
             NaN             NaN             NaN
             NaN             NaN             NaN
             NaN             NaN             NaN
             NaN             NaN             NaN
             NaN             NaN             NaN
             NaN             NaN             NaN
             NaN             NaN             NaN
             NaN             NaN             NaN
             NaN             NaN             NaN
             NaN             NaN             NaN
             NaN             NaN             NaN
             NaN             NaN             NaN
             NaN             NaN             NaN
             NaN             NaN             NaN
             NaN             NaN             NaN
             NaN             NaN             NaN
             NaN             NaN             NaN
             NaN             NaN             NaN
             NaN             NaN             NaN
             NaN             NaN             NaN
             NaN             NaN             NaN
             NaN             NaN             NaN
             NaN             NaN             NaN
             NaN             NaN             NaN
             NaN             NaN             NaN
             NaN             NaN             NaN
             NaN             NaN             NaN
             NaN             NaN             NaN
