# Compound: Fe32Li31O16S32. Old comment: Fe32Li31O16S32
  1.0000000000
  7.6911861600  -7.6885056400   0.0000000100
  7.6884112800   7.6911136200  -0.0126780500
 -3.8335882400  -3.8349345400  12.8627506400
Fe    Li    O     S
   32    31    16    32
Direct
  0.9741017266   0.0793171745   0.1586826698
  0.2245910446   0.3299844318   0.1594539099
  0.7242091523   0.3287748430   0.1585746237
  0.9745113261   0.5796088988   0.1593763497
  0.9745720821   0.4212282493   0.3413487544
  0.2296445564   0.6784285005   0.3455857358
  0.7219887337   0.6680556063   0.3436281267
  0.9732877710   0.9197796981   0.3413509544
  0.9732806377   0.0784332391   0.6586633655
  0.2252255626   0.3301924047   0.6587341858
  0.7232500823   0.3288361105   0.6587107665
  0.9745876395   0.5799148437   0.6586535073
  0.9741043020   0.4205976487   0.8413031244
  0.2245827036   0.6705283560   0.8405399301
  0.7242220037   0.6701911239   0.8414192625
  0.9745178356   0.9202078198   0.8406211186
  0.4745230612   0.5778085951   0.1570663338
  0.7234266274   0.8297035838   0.1594560103
  0.2236275500   0.8297063949   0.1583740467
  0.4741484498   0.0792959827   0.1591555971
  0.4683903536   0.9173743275   0.3454922822
  0.7232477861   0.1701287558   0.3412940675
  0.2252175335   0.1714266013   0.3412598355
  0.4777915246   0.4236583187   0.3435643711
  0.4777919593   0.5801045488   0.6564487258
  0.7219944856   0.8244355992   0.6563783758
  0.2296521217   0.8328346451   0.6544279636
  0.4683892342   0.0718831384   0.6545156285
  0.4745509940   0.9207238184   0.8429396007
  0.7234220831   0.1702192145   0.8405426078
  0.2236149739   0.1712866028   0.8416134493
  0.4741553401   0.4201167668   0.8408379315
  0.0810345826   0.1434158301   0.0003364735
  0.8670355286   0.8570664077   0.0001425344
  0.8670372721   0.3569090397   0.9998405990
  0.0810361630   0.6430746497   0.9996535929
  0.1176351495   0.3933723598   0.5000049094
  0.3301535457   0.6095630661   0.5000016093
  0.8260621056   0.6051227308   0.5000004064
  0.6189091414   0.3980236021   0.5000122968
  0.0802282755   0.1440647780   0.5000122682
  0.8675318462   0.8569836122   0.5000085223
  0.8676370068   0.3563291976   0.5000041819
  0.0796589191   0.6439111579   0.5000073594
  0.1172508546   0.3934464263   0.0006879905
  0.3305668519   0.6064882373   0.0003004328
  0.8312015229   0.6074180634   0.0006578568
  0.6176574957   0.3936218074   0.0001237886
  0.5805064840   0.6434545076   0.0002670682
  0.3678129146   0.3562456102   0.9997623177
  0.3678131213   0.8564812009   0.0002194786
  0.5805100981   0.1431787979   0.9997316465
  0.6142973398   0.8940719242   0.5000027528
  0.8306356148   0.1066781906   0.4999985640
  0.3286023684   0.1009314921   0.5000045281
  0.1233537947   0.8955875271   0.5000115269
  0.3672821452   0.3563921098   0.4999978478
  0.5099735835   0.7140934525   0.5000145357
  0.5800016931   0.1446092088   0.5000033755
  0.6176564116   0.8934994588   0.9998828257
  0.8312022662   0.1067477490   0.9993302021
  0.3305657823   0.1061734387   0.9996798615
  0.1172457967   0.8927536313   0.9993031435
  0.2243947859   0.2490556496   0.5000057468
  0.4740216704   0.4998935158   0.9998863476
  0.9742236701   0.5001942893   0.0003831896
  0.2211496087   0.7469221173   0.5000122575
  0.2244424864   0.2503171894   0.0004246311
  0.4717415855   0.5029014700   0.5000109804
  0.9734571361   0.4999864558   0.5000070445
  0.2244431818   0.7498900263   0.9995541254
  0.7210165185   0.7523499260   0.5000122515
  0.9742237179   0.9998007609   0.9995938746
  0.4740209913   1.0000008703   0.0000984078
  0.7239659371   0.2506404848   0.5000092487
  0.7237507805   0.7501284053   0.0004368601
  0.9750827685   0.9998440505   0.5000125415
  0.4771547782   0.0030824878   0.5000095957
  0.7237504451   0.2496769651   0.9995425835
  0.9741623102   0.3254927566   0.1516284096
  0.2241331086   0.5772956393   0.1539892925
  0.7237425506   0.5763339178   0.1530502614
  0.9741331900   0.8260433624   0.1516770107
  0.9741160965   0.1739451172   0.3479466797
  0.2237850152   0.4230148446   0.3480511153
  0.7252973229   0.4219260702   0.3464217140
  0.9726120775   0.6735126512   0.3476106846
  0.9741190486   0.3259969497   0.6520552623
  0.2237745318   0.5749792689   0.6519533143
  0.7253143164   0.5755205630   0.6535819000
  0.9726184640   0.8259041403   0.6524022562
  0.9741352923   0.1743425699   0.8483164708
  0.2239654715   0.4243758668   0.8486190445
  0.7244586359   0.4241022251   0.8485815382
  0.9741688781   0.6738826393   0.8483595043
  0.4739740339   0.8268776786   0.1537858300
  0.7244541628   0.0755177786   0.1514078336
  0.2239708803   0.0757467141   0.1513643324
  0.4742380887   0.3266123693   0.1527382268
  0.4718070998   0.6710791896   0.3376010039
  0.7251428934   0.9243977984   0.3480988136
  0.2225141763   0.9248750684   0.3463531523
  0.4744136644   0.1751134345   0.3474232862
  0.4718105191   0.8334785591   0.6624033992
  0.7251508587   0.0762906834   0.6519081559
  0.2225081707   0.0785117331   0.6536534598
  0.4744103999   0.3276922638   0.6525763136
  0.4742363018   0.6738931285   0.8472565900
  0.7237521345   0.9232853452   0.8469464441
  0.2241242693   0.9233036608   0.8460034502
  0.4739691023   0.1730699876   0.8462096945
