# Compound: Li2OS2Fe2. Old comment: Fe2L
   1.00000000000000     
     5.4180809600000002    0.0000000900000000   -0.0071645200000000
     2.7090366100000001    2.7101152000000002   -0.0035822600000000
     2.7090043300000000    0.0000004500000000    6.2971812399999996
   Li   O    S    Fe
     2     1     2     2
Direct
  0.0554108899999974  0.3928365900000017  0.9996869499999974
  0.5517525200000009  0.3928365900000017  0.0003130500000026
  0.0525504299999966  0.8949001599999988  0.0000000000000000
  0.7035980400000028  0.8923879399999990  0.7000067900000033
  0.4040140199999982  0.8923879399999990  0.2999932099999967
  0.2042220599999993  0.9046088999999995  0.6812648399999972
  0.8911690400000012  0.9046088999999995  0.3187351600000028
 
  0.00000000E+00  0.00000000E+00  0.00000000E+00
  0.00000000E+00  0.00000000E+00  0.00000000E+00
  0.00000000E+00  0.00000000E+00  0.00000000E+00
  0.00000000E+00  0.00000000E+00  0.00000000E+00
  0.00000000E+00  0.00000000E+00  0.00000000E+00
  0.00000000E+00  0.00000000E+00  0.00000000E+00
  0.00000000E+00  0.00000000E+00  0.00000000E+00
