# Compound: Li2OS2Fe2. Old comment: Fe2Li2OS2
  1.0000000000
  5.4180809600   0.0000000900  -0.0071645200
  2.7090366100   2.7101152000  -0.0035822600
  2.7090043300   0.0000004500   6.2971812400
Li    O     S     Fe
    2     1     2     2
Direct
  0.0554108900   0.3928365900   0.9996869500
  0.5517525200   0.3928365900   0.0003130500
  0.0525504300   0.8949001600   0.0000000000
  0.7035980400   0.8923879400   0.7000067900
  0.4040140200   0.8923879400   0.2999932100
  0.2042220600   0.9046089000   0.6812648400
  0.8911690400   0.9046089000   0.3187351600
