# Compound: Li4Fe2S2O2. Old comment: Li2
   1.00000000000000     
     3.8876181393713360   -0.0190546438321787    0.0000000000000000
     0.0271694658082124    5.5454705924747252    0.0000000000000000
     0.0000000000000000    0.0000000000000000    5.5391757803803534
   Li   Fe   S    O 
     4     2     2     2
Direct
  0.1064969760037831  0.7266249958041108  0.7141142637880932
  0.1064969760037831  0.2266249958041107  0.2858857362119067
  0.6074911343132733  0.4365808303947317  0.5459445142987817
  0.6074911343132733  0.9365808303947317  0.4540554857012183
  0.6055178352030981  0.0261827542961963  0.9581224886831410
  0.6055178352030981  0.5261827542961962  0.0418775113168590
  0.1057339836457015  0.7390612688693925  0.2406067404353742
  0.1057339836457015  0.2390612688693925  0.7593932595646258
  0.6061310708341439  0.7351921506355716  0.7500115031465899
  0.6061310708341439  0.2351921506355717  0.2499884968534102
 
  0.00000000E+00  0.00000000E+00  0.00000000E+00
  0.00000000E+00  0.00000000E+00  0.00000000E+00
  0.00000000E+00  0.00000000E+00  0.00000000E+00
  0.00000000E+00  0.00000000E+00  0.00000000E+00
  0.00000000E+00  0.00000000E+00  0.00000000E+00
  0.00000000E+00  0.00000000E+00  0.00000000E+00
  0.00000000E+00  0.00000000E+00  0.00000000E+00
  0.00000000E+00  0.00000000E+00  0.00000000E+00
  0.00000000E+00  0.00000000E+00  0.00000000E+00
  0.00000000E+00  0.00000000E+00  0.00000000E+00
