# Compound: Li4Fe2S2O2. Old comment: Li2FeSO 3451c2
  1.0000000000
  3.9190061000  -0.0240993200   0.0000000000
  0.0205357400   5.6123162800   0.0000000000
  0.0000000000   0.0000000000   5.6054487500
Li    Fe    S     O
    4     2     2     2
Direct
  0.1064187700   0.7268913100   0.7143931100
  0.1064187700   0.2268913100   0.2856068900
  0.6080935000   0.4358043200   0.5468725200
  0.6080935000   0.9358043200   0.4531274800
  0.6057403600   0.0255512800   0.9593075800
  0.6057403600   0.5255512800   0.0406924200
  0.1056210800   0.7398549800   0.2399348600
  0.1056210800   0.2398549800   0.7600651400
  0.6054972900   0.7355401100   0.7475486000
  0.6054972900   0.2355401100   0.2524514000
