# Compound: Li8Fe6S6O4. Old comment: Fe6
   1.0000000000000000     
     7.4282012599999998    0.0020899400000000   -1.3616554199999999
    -0.1374387200000000    4.0207725300000003   -0.7435943699999999
    -0.0092337000000000   -0.1578620200000000   10.4031968999999993
   Li   Fe   S    O 
     8     6     6     4
Direct
  0.9537464699999987  0.0026946699999968  0.0053893500000015
  0.5462535300000013  0.9973053300000032  0.9946106499999985
  0.3607851399999973  0.8056396400000025  0.6112792799999980
  0.1392148600000027  0.1943603599999975  0.3887207200000020
  0.2170452299999965  0.9213284400000035  0.8426568900000007
  0.6864019100000007  0.8878469799999991  0.7756939699999990
  0.2829547700000035  0.0786715599999965  0.1573431099999993
  0.8135980899999993  0.1121530200000009  0.2243060300000010
  0.9313730200000023  0.8013867700000006  0.6027735600000028
  0.5686269799999977  0.1986132299999994  0.3972264399999972
  0.4462079500000016  0.4004964499999986  0.8009928800000026
  0.9552328899999978  0.4072705499999998  0.8145410999999996
  0.0537920499999984  0.5995035500000014  0.1990071199999974
  0.5447671100000022  0.5927294500000002  0.1854589000000004
  0.2500000000000000  0.5000000000000000  0.0000000000000000
  0.7500000000000000  0.5000000000000000  0.0000000000000000
  0.3522229000000010  0.6843607599999970  0.3687215300000020
  0.8324089799999967  0.6839276999999981  0.3678554099999971
  0.1477770999999990  0.3156392400000030  0.6312784699999980
  0.6675910200000033  0.3160723000000019  0.6321445900000029
  0.4505142599999985  0.9032701100000011  0.8065402000000006
  0.9521268800000016  0.9037098100000023  0.8074196099999966
  0.0494857400000015  0.0967298899999989  0.1934597999999994
  0.5478731199999984  0.0962901899999977  0.1925803900000034

  0.00000000E+00  0.00000000E+00  0.00000000E+00
  0.00000000E+00  0.00000000E+00  0.00000000E+00
  0.00000000E+00  0.00000000E+00  0.00000000E+00
  0.00000000E+00  0.00000000E+00  0.00000000E+00
  0.00000000E+00  0.00000000E+00  0.00000000E+00
  0.00000000E+00  0.00000000E+00  0.00000000E+00
  0.00000000E+00  0.00000000E+00  0.00000000E+00
  0.00000000E+00  0.00000000E+00  0.00000000E+00
  0.00000000E+00  0.00000000E+00  0.00000000E+00
  0.00000000E+00  0.00000000E+00  0.00000000E+00
  0.00000000E+00  0.00000000E+00  0.00000000E+00
  0.00000000E+00  0.00000000E+00  0.00000000E+00
  0.00000000E+00  0.00000000E+00  0.00000000E+00
  0.00000000E+00  0.00000000E+00  0.00000000E+00
  0.00000000E+00  0.00000000E+00  0.00000000E+00
  0.00000000E+00  0.00000000E+00  0.00000000E+00
  0.00000000E+00  0.00000000E+00  0.00000000E+00
  0.00000000E+00  0.00000000E+00  0.00000000E+00
  0.00000000E+00  0.00000000E+00  0.00000000E+00
  0.00000000E+00  0.00000000E+00  0.00000000E+00
  0.00000000E+00  0.00000000E+00  0.00000000E+00
  0.00000000E+00  0.00000000E+00  0.00000000E+00
  0.00000000E+00  0.00000000E+00  0.00000000E+00
  0.00000000E+00  0.00000000E+00  0.00000000E+00
