# Compound: Li8Fe6S6O4. Old comment: Fe6Li8O4S6
  1.0000000000
  7.4282012600   0.0020899400  -1.3616554200
 -0.1374387200   4.0207725300  -0.7435943700
 -0.0092337000  -0.1578620200  10.4031969000
Li    Fe    S     O
    8     6     6     4
Direct
  0.9537464700   0.0026946700   0.0053893500
  0.5462535300   0.9973053300   0.9946106500
  0.3607851400   0.8056396400   0.6112792800
  0.1392148600   0.1943603600   0.3887207200
  0.2170452300   0.9213284400   0.8426568900
  0.6864019100   0.8878469800   0.7756939700
  0.2829547700   0.0786715600   0.1573431100
  0.8135980900   0.1121530200   0.2243060300
  0.9313730200   0.8013867700   0.6027735600
  0.5686269800   0.1986132300   0.3972264400
  0.4462079500   0.4004964500   0.8009928800
  0.9552328900   0.4072705500   0.8145411000
  0.0537920500   0.5995035500   0.1990071200
  0.5447671100   0.5927294500   0.1854589000
  0.2500000000   0.5000000000   0.0000000000
  0.7500000000   0.5000000000   0.0000000000
  0.3522229000   0.6843607600   0.3687215300
  0.8324089800   0.6839277000   0.3678554100
  0.1477771000   0.3156392400   0.6312784700
  0.6675910200   0.3160723000   0.6321445900
  0.4505142600   0.9032701100   0.8065402000
  0.9521268800   0.9037098100   0.8074196100
  0.0494857400   0.0967298900   0.1934598000
  0.5478731200   0.0962901900   0.1925803900
