# Compound: Li4OS4Fe3. Old comment: LFSO
   1.00000000000000     
     9.2703326947496070   -0.1271289596681195   -0.0528753163324658
     4.7873941944685647    5.1462692710748081   -0.0425726500837710
     4.7873941944672715    3.5981693882026802    3.6795484600698583
   Li   O    S    Fe
     4     1     4     3
Direct
  0.8607969010877112  0.2310027806774178  0.3701168616865108
  0.1392030989122888  0.6298831383134891  0.7689972193225822
  0.5828379024463154  0.8016175261967414  0.9403827025078213
  0.4171620975536846  0.0596172974921787  0.1983824738032587
 -0.0000000000000000  0.4309388515829550  0.5690611484170451
  0.7844543572611103  0.8640448781523724  0.0029385007755128
  0.2155456427388898  0.9970614992244877  0.1359551218476271
  0.6568488540686176  0.1829615275953633  0.3216673158941337
  0.3431511459313824  0.6783326841058659  0.8170384724046371
  0.7073248235912378  0.5263419656305367  0.6644935988740832
  0.2926751764087622  0.3355064011259166  0.4736580343694634
 -0.0000000000000000  0.9309044399026758  0.0690955600973241
 
  0.00000000E+00  0.00000000E+00  0.00000000E+00
  0.00000000E+00  0.00000000E+00  0.00000000E+00
  0.00000000E+00  0.00000000E+00  0.00000000E+00
  0.00000000E+00  0.00000000E+00  0.00000000E+00
  0.00000000E+00  0.00000000E+00  0.00000000E+00
  0.00000000E+00  0.00000000E+00  0.00000000E+00
  0.00000000E+00  0.00000000E+00  0.00000000E+00
  0.00000000E+00  0.00000000E+00  0.00000000E+00
  0.00000000E+00  0.00000000E+00  0.00000000E+00
  0.00000000E+00  0.00000000E+00  0.00000000E+00
  0.00000000E+00  0.00000000E+00  0.00000000E+00
  0.00000000E+00  0.00000000E+00  0.00000000E+00
