# No comment
0
Gamma
            3             6             6
  0.000000000   0.000000000   0.000000000
