# Compound: Li4OS4Fe3. Old comment: LFSO-Li4Fe3S4O-200925-201817-7d9406 RELAXED
  1.0000000000
  9.3568367400  -0.1490133400  -0.0619774400
  4.8208210900   5.1746098900  -0.0541440000
  4.8208210900   3.6099449000   3.7078048600
Li    O     S     Fe
    4     1     4     3
Direct
  0.8598812300   0.2302837300   0.3703261700
  0.1401187700   0.6296738300   0.7697162700
  0.5812152200   0.8012941500   0.9405306300
  0.4187847800   0.0594693700   0.1987058500
 -0.0000000000   0.4312627400   0.5687372600
  0.7847037700   0.8622846000   0.0013585400
  0.2152962300   0.9986414600   0.1377154000
  0.6556944900   0.1833985700   0.3223776800
  0.3443055100   0.6776223200   0.8166014300
  0.7074554500   0.5257623100   0.6628408900
  0.2925445500   0.3371591100   0.4742376900
 -0.0000000000   0.9313608000   0.0686392000
