# Compound: Fe32Li31O16S32. Old comment:
   1.0000000000000000     
     7.6911861600000000   -7.6885056399999998    0.0000000100000000
     7.6884112800000004    7.6911136200000003   -0.0126780500000000
    -3.8335882400000001   -3.8349345399999999   12.8627506399999998
   Fe   Li   O    S 
    32    31    16    32
Direct
  0.9740291317000001  0.0813703227999980  0.1594360546000004
  0.2242532615999977  0.3308731934000022  0.1604558809999972
  0.7242289949999972  0.3297958217999977  0.1566997052999994
  0.9748630926000033  0.5805377805999967  0.1579750462000007
  0.9662742956000017  0.4314886224000034  0.3455714688999976
  0.2236651409000032  0.6703945220000023  0.3412264371999996
  0.7240159541999986  0.6773513742000006  0.3441422364999980
  0.9738587367000022  0.9219543043000016  0.3409866458000010
  0.9739008629000026  0.0809819503000000  0.6590125035000014
  0.2236367420999983  0.3310858839999966  0.6585956137000011
  0.7252532129000002  0.3276981551000020  0.6593187592999996
  0.9662495327999991  0.5859482122000017  0.6544353466000032
  0.9740140616000019  0.4219414537000006  0.8405539950000005
  0.2242410866999975  0.6704111081999997  0.8395405711999970
  0.7241424222000035  0.6731010645000026  0.8433045494000027
  0.9748082642000000  0.9225623000999974  0.8420148100999967
  0.4734919256000012  0.5821089693999966  0.1587997880999978
  0.7239607078000034  0.8314643180000019  0.1590506399000020
  0.2242034789000016  0.8296885398000029  0.1584238364999990
  0.4742294651000023  0.0817254464000001  0.1598712557999988
  0.4736942680999974  0.9222099277999973  0.3408068166000007
  0.7252626785000018  0.1684051363000023  0.3407000712999988
  0.2235984938999991  0.1724937911000026  0.3413973712999976
  0.4816668117000020  0.4333472423000018  0.3455313209000010
  0.4816385016999973  0.5878025008000023  0.6544445286999974
  0.7239546866999973  0.8332007397999988  0.6558507796000015
  0.2236405441000002  0.8291547091000027  0.6587768536000027
  0.4737392114000016  0.0814152272999991  0.6591923443000027
  0.4734685048000031  0.9233152536000020  0.8412075339999987
  0.7239063767000005  0.1724074154999968  0.8409511309000024
  0.2241775009999998  0.1712315689999997  0.8415718584000018
  0.4742172913000005  0.4218638950000013  0.8401345661999997
  0.0812346825999981  0.1447760269999989  0.0013010464000018
  0.8683176966999966  0.8568298628999997  0.0005857028999969
  0.8683177305000029  0.3562310057000033  0.9993823423000023
  0.0812371119999966  0.6434791057999973  0.9987008645000017
  0.1152964146999977  0.3939051059999983  0.5000242579000016
  0.3489959869000003  0.6210614757999977  0.4999935145999999
  0.7222883553000017  0.5886332409999966  0.4999926622000004
  0.6003921033999973  0.3711936135999991  0.5000157126999980
  0.0827626947000013  0.1413164076000015  0.4999883549999993
  0.8739101378999976  0.8485560000000021  0.5000122893999972
  0.8652623612999975  0.3572386539999997  0.5000129172000030
  0.0785914462000008  0.6431115059000021  0.4999965698999986
  0.1178386957000015  0.3940243839000033  0.9998287388999998
  0.3308136465999993  0.6074162625000028  0.9992260213999984
  0.8298731678000024  0.6061402077000011  0.0010410037999975
  0.6166686972999997  0.3934978898999972  0.9998712577000006
  0.5804571623000001  0.6436997429999991  0.9996355242999968
  0.3673149039000023  0.3584157837999982  0.0009907159999969
  0.3673271365999966  0.8574083963999968  0.9990045444999964
  0.5804574977999977  0.1440858058000032  0.0004010745999992
  0.5985534265999988  0.8711263746000029  0.4999834799000027
  0.8320349143999977  0.1033424449000009  0.5000126795000028
  0.3375918014999968  0.1148722098999997  0.5000011612999984
  0.1174335859000024  0.8939241822999975  0.5000004982999968
  0.3589215888000012  0.3666281404999978  0.4999709399999972
  0.3587513454000018  0.8649568032000019  0.5000284142000027
  0.5904738855000033  0.1289860863999976  0.4999806649000007
  0.6166764924000034  0.8936530423999969  0.0001590200999999
  0.8298706875999997  0.1050927799999997  0.9989476841000027
  0.3308231931999970  0.1082072885999992  0.0007869820000010
  0.1178386144000001  0.8941943538999979  0.0001618244000028
  0.2229115203000021  0.2516774592000033  0.4999977876000017
  0.4741978799999984  0.5009261168999970  0.9997687305000014
  0.9742613924000025  0.5004172104999967  0.9995607120999992
  0.2235914286999972  0.7510918635000010  0.5000008052999974
  0.2242538272000019  0.2515251713000026  0.0010020177999976
  0.4775253793999994  0.4968174787000024  0.4999897020000006
  0.9739873373000023  0.4979511638000034  0.5000048483000015
  0.2242555027999984  0.7505229805000013  0.9989961515999966
  0.7275568765999978  0.7547620977999969  0.4999966159000024
  0.9742570968999971  0.0008506073999968  0.0004301976999983
  0.4742000306999969  0.0011598277000004  0.0002395274999998
  0.7251877539999967  0.2453679382999994  0.5000071129000005
  0.7243174947999975  0.7497774278999998  0.0005030975000011
  0.9742515926999999  0.9978543896000005  0.5000004083999983
  0.4730588016999988  0.9979512582999988  0.4999996393000004
  0.7243216160999992  0.2492731317000008  0.9994993457000021
  0.9745267544000029  0.3278917451999988  0.1546217133999974
  0.2246568605999997  0.5770775547999989  0.1514164948999976
  0.7243483349000002  0.5757984528000009  0.1540356713000008
  0.9747627976000004  0.8257140158000027  0.1510099493999988
  0.9743887811000036  0.1710558095999986  0.3479158211000026
  0.2266445723999979  0.4264580736000028  0.3490944616999982
  0.7247507005000031  0.4101786374000014  0.3429399141000005
  0.9770140560000016  0.6744965740999973  0.3457944397000006
  0.9743937873000021  0.3231359243999989  0.6520805998000014
  0.2266696904000014  0.5773669123000005  0.6509032561000012
  0.7247432558000000  0.5672442700999980  0.6570589613000024
  0.9770234418000001  0.8287012947999983  0.6542026724999985
  0.9747672486999974  0.1747011838999981  0.8489856329000034
  0.2243875073000012  0.4248628818999975  0.8480402296999969
  0.7242293573999987  0.4227455393999975  0.8496074760000027
  0.9745292619000026  0.6732674300000028  0.8453749677999980
  0.4736306758999973  0.8262561387999980  0.1507076143000035
  0.7242333101999989  0.0731488188000000  0.1504015217999992
  0.2243785360999979  0.0768187082000011  0.1519557395000035
  0.4746688954000007  0.3276624132999970  0.1544596510999980
  0.4737711313999995  0.6754551436999989  0.3472409100999982
  0.7229439135000035  0.9229527216999998  0.3472758169000016
  0.2243165886999989  0.9254389739000004  0.3481470318999982
  0.4737828358000016  0.1710432703999984  0.3493391936000023
  0.4737802081000027  0.8282150054999988  0.6527616764999991
  0.7229413693000026  0.0756710683999984  0.6527267200999987
  0.2243222431999996  0.0772869938000014  0.6518496819000035
  0.4737841589000027  0.3217094723000002  0.6506600177999999
  0.4746743529000028  0.6731973102000026  0.8455346320999979
  0.7243466886000007  0.9217580496000011  0.8459620049999970
  0.2246670375999997  0.9256629388000022  0.8485844878999984
  0.4736344107000008  0.1755503406999992  0.8492950971999988

             NaN             NaN             NaN
             NaN             NaN             NaN
             NaN             NaN             NaN
             NaN             NaN             NaN
             NaN             NaN             NaN
             NaN             NaN             NaN
             NaN             NaN             NaN
             NaN             NaN             NaN
             NaN             NaN             NaN
             NaN             NaN             NaN
             NaN             NaN             NaN
             NaN             NaN             NaN
             NaN             NaN             NaN
             NaN             NaN             NaN
             NaN             NaN             NaN
             NaN             NaN             NaN
             NaN             NaN             NaN
             NaN             NaN             NaN
             NaN             NaN             NaN
             NaN             NaN             NaN
             NaN             NaN             NaN
             NaN             NaN             NaN
             NaN             NaN             NaN
             NaN             NaN             NaN
             NaN             NaN             NaN
             NaN             NaN             NaN
             NaN             NaN             NaN
             NaN             NaN             NaN
             NaN             NaN             NaN
             NaN             NaN             NaN
             NaN             NaN             NaN
             NaN             NaN             NaN
             NaN             NaN             NaN
             NaN             NaN             NaN
             NaN             NaN             NaN
             NaN             NaN             NaN
             NaN             NaN             NaN
             NaN             NaN             NaN
             NaN             NaN             NaN
             NaN             NaN             NaN
             NaN             NaN             NaN
             NaN             NaN             NaN
             NaN             NaN             NaN
             NaN             NaN             NaN
             NaN             NaN             NaN
             NaN             NaN             NaN
             NaN             NaN             NaN
             NaN             NaN             NaN
             NaN             NaN             NaN
             NaN             NaN             NaN
             NaN             NaN             NaN
             NaN             NaN             NaN
             NaN             NaN             NaN
             NaN             NaN             NaN
             NaN             NaN             NaN
             NaN             NaN             NaN
             NaN             NaN             NaN
             NaN             NaN             NaN
             NaN             NaN             NaN
             NaN             NaN             NaN
             NaN             NaN             NaN
             NaN             NaN             NaN
             NaN             NaN             NaN
             NaN             NaN             NaN
             NaN             NaN             NaN
             NaN             NaN             NaN
             NaN             NaN             NaN
             NaN             NaN             NaN
             NaN             NaN             NaN
             NaN             NaN             NaN
             NaN             NaN             NaN
             NaN             NaN             NaN
             NaN             NaN             NaN
             NaN             NaN             NaN
             NaN             NaN             NaN
             NaN             NaN             NaN
             NaN             NaN             NaN
             NaN             NaN             NaN
             NaN             NaN             NaN
             NaN             NaN             NaN
             NaN             NaN             NaN
             NaN             NaN             NaN
             NaN             NaN             NaN
             NaN             NaN             NaN
             NaN             NaN             NaN
             NaN             NaN             NaN
             NaN             NaN             NaN
             NaN             NaN             NaN
             NaN             NaN             NaN
             NaN             NaN             NaN
             NaN             NaN             NaN
             NaN             NaN             NaN
             NaN             NaN             NaN
             NaN             NaN             NaN
             NaN             NaN             NaN
             NaN             NaN             NaN
             NaN             NaN             NaN
             NaN             NaN             NaN
             NaN             NaN             NaN
             NaN             NaN             NaN
             NaN             NaN             NaN
             NaN             NaN             NaN
             NaN             NaN             NaN
             NaN             NaN             NaN
             NaN             NaN             NaN
             NaN             NaN             NaN
             NaN             NaN             NaN
             NaN             NaN             NaN
             NaN             NaN             NaN
             NaN             NaN             NaN
             NaN             NaN             NaN
