# Compound: Fe32Li31O16S32. Old comment: Fe32Li31O16S32
  1.0000000000
  7.6911861600  -7.6885056400   0.0000000100
  7.6884112800   7.6911136200  -0.0126780500
 -3.8335882400  -3.8349345400  12.8627506400
Fe    Li    O     S
   32    31    16    32
Direct
  0.9740291317   0.0813703228   0.1594360546
  0.2242532616   0.3308731934   0.1604558810
  0.7242289950   0.3297958218   0.1566997053
  0.9748630926   0.5805377806   0.1579750462
  0.9662742956   0.4314886224   0.3455714689
  0.2236651409   0.6703945220   0.3412264372
  0.7240159542   0.6773513742   0.3441422365
  0.9738587367   0.9219543043   0.3409866458
  0.9739008629   0.0809819503   0.6590125035
  0.2236367421   0.3310858840   0.6585956137
  0.7252532129   0.3276981551   0.6593187593
  0.9662495328   0.5859482122   0.6544353466
  0.9740140616   0.4219414537   0.8405539950
  0.2242410867   0.6704111082   0.8395405712
  0.7241424222   0.6731010645   0.8433045494
  0.9748082642   0.9225623001   0.8420148101
  0.4734919256   0.5821089694   0.1587997881
  0.7239607078   0.8314643180   0.1590506399
  0.2242034789   0.8296885398   0.1584238365
  0.4742294651   0.0817254464   0.1598712558
  0.4736942681   0.9222099278   0.3408068166
  0.7252626785   0.1684051363   0.3407000713
  0.2235984939   0.1724937911   0.3413973713
  0.4816668117   0.4333472423   0.3455313209
  0.4816385017   0.5878025008   0.6544445287
  0.7239546867   0.8332007398   0.6558507796
  0.2236405441   0.8291547091   0.6587768536
  0.4737392114   0.0814152273   0.6591923443
  0.4734685048   0.9233152536   0.8412075340
  0.7239063767   0.1724074155   0.8409511309
  0.2241775010   0.1712315690   0.8415718584
  0.4742172913   0.4218638950   0.8401345662
  0.0812346826   0.1447760270   0.0013010464
  0.8683176967   0.8568298629   0.0005857029
  0.8683177305   0.3562310057   0.9993823423
  0.0812371120   0.6434791058   0.9987008645
  0.1152964147   0.3939051060   0.5000242579
  0.3489959869   0.6210614758   0.4999935146
  0.7222883553   0.5886332410   0.4999926622
  0.6003921034   0.3711936136   0.5000157127
  0.0827626947   0.1413164076   0.4999883550
  0.8739101379   0.8485560000   0.5000122894
  0.8652623613   0.3572386540   0.5000129172
  0.0785914462   0.6431115059   0.4999965699
  0.1178386957   0.3940243839  -0.0001712611
  0.3308136466   0.6074162625  -0.0007739786
  0.8298731678   0.6061402077   0.0010410038
  0.6166686973   0.3934978899  -0.0001287423
  0.5804571623   0.6436997430   0.9996355243
  0.3673149039   0.3584157838   0.0009907160
  0.3673271366   0.8574083964   0.9990045445
  0.5804574978   0.1440858058   0.0004010746
  0.5985534266   0.8711263746   0.4999834799
  0.8320349144   0.1033424449   0.5000126795
  0.3375918015   0.1148722099   0.5000011613
  0.1174335859   0.8939241823   0.5000004983
  0.3589215888   0.3666281405   0.4999709400
  0.3587513454   0.8649568032   0.5000284142
  0.5904738855   0.1289860864   0.4999806649
  0.6166764924   0.8936530424   1.0001590201
  0.8298706876   0.1050927800   0.9989476841
  0.3308231932   0.1082072886   1.0007869820
  0.1178386144   0.8941943539   1.0001618244
  0.2229115203   0.2516774592   0.4999977876
  0.4741978800   0.5009261169  -0.0002312695
  0.9742613924   0.5004172105  -0.0004392879
  0.2235914287   0.7510918635   0.5000008053
  0.2242538272   0.2515251713   0.0010020178
  0.4775253794   0.4968174787   0.4999897020
  0.9739873373   0.4979511638   0.5000048483
  0.2242555028   0.7505229805   0.9989961516
  0.7275568766   0.7547620978   0.4999966159
  0.9742570969   1.0008506074   1.0004301977
  0.4742000307   1.0011598277   1.0002395275
  0.7251877540   0.2453679383   0.5000071129
  0.7243174948   0.7497774279   0.0005030975
  0.9742515927   0.9978543896   0.5000004084
  0.4730588017   0.9979512583   0.4999996393
  0.7243216161   0.2492731317   0.9994993457
  0.9745267544   0.3278917452   0.1546217134
  0.2246568606   0.5770775548   0.1514164949
  0.7243483349   0.5757984528   0.1540356713
  0.9747627976   0.8257140158   0.1510099494
  0.9743887811   0.1710558096   0.3479158211
  0.2266445724   0.4264580736   0.3490944617
  0.7247507005   0.4101786374   0.3429399141
  0.9770140560   0.6744965741   0.3457944397
  0.9743937873   0.3231359244   0.6520805998
  0.2266696904   0.5773669123   0.6509032561
  0.7247432558   0.5672442701   0.6570589613
  0.9770234418   0.8287012948   0.6542026725
  0.9747672487   0.1747011839   0.8489856329
  0.2243875073   0.4248628819   0.8480402297
  0.7242293574   0.4227455394   0.8496074760
  0.9745292619   0.6732674300   0.8453749678
  0.4736306759   0.8262561388   0.1507076143
  0.7242333102   0.0731488188   0.1504015218
  0.2243785361   0.0768187082   0.1519557395
  0.4746688954   0.3276624133   0.1544596511
  0.4737711314   0.6754551437   0.3472409101
  0.7229439135   0.9229527217   0.3472758169
  0.2243165887   0.9254389739   0.3481470319
  0.4737828358   0.1710432704   0.3493391936
  0.4737802081   0.8282150055   0.6527616765
  0.7229413693   0.0756710684   0.6527267201
  0.2243222432   0.0772869938   0.6518496819
  0.4737841589   0.3217094723   0.6506600178
  0.4746743529   0.6731973102   0.8455346321
  0.7243466886   0.9217580496   0.8459620050
  0.2246670376   0.9256629388   0.8485844879
  0.4736344107   0.1755503407   0.8492950972
