# Compound: Fe24Li31O16S24. Old comment:
   1.0000000000000000     
     7.8866538400000001   -7.9475566999999998    0.0601846200000000
     7.3433505600000002    7.9467915400000004   -2.8792872599999999
    -0.0478291200000000   -0.1071026000000000   10.5527142699999992
   Fe   Li   O    S 
    24    31    16    24
Direct
  0.2618900499999981  0.6645181199999968  0.6021894699999990
  0.2354073699999972  0.3352225799999999  0.3988611500000019
  0.1230164700000032  0.3258715099999989  0.8029694700000007
  0.3749642100000017  0.5792411600000023  0.8141153700000032
  0.8742673900000000  0.1752000700000025  0.1991362300000006
  0.1243678599999996  0.4215381100000002  0.1854567600000010
  0.0159945300000004  0.9163662099999996  0.6017554100000027
  0.9797293100000033  0.5848656300000030  0.3986149300000008
  0.8693551499999970  0.5741039700000030  0.7889974799999990
  0.1250129599999994  0.8294615900000011  0.8167369100000030
  0.6270150699999988  0.4262504699999994  0.1966504499999999
  0.8727632000000014  0.6688743099999996  0.1833459500000032
  0.7645887400000007  0.1628223100000028  0.6025256300000024
  0.7348818399999999  0.8290595100000004  0.3993016399999973
  0.6272936700000002  0.8174550399999987  0.7890734699999982
  0.8754724799999991  0.0792618600000026  0.8166490799999977
  0.3774314300000015  0.6759870599999971  0.1995048100000005
  0.6244508199999999  0.9203576199999972  0.1871815200000029
  0.5211325699999989  0.4218078999999975  0.6012347400000024
  0.4856133600000021  0.0854253799999967  0.3994035199999999
  0.3752059299999999  0.0738617700000006  0.8030687500000013
  0.6257875900000016  0.3286370499999975  0.8131642900000031
  0.1249733699999993  0.9242081399999975  0.1971729099999990
  0.3742614700000004  0.1699854599999995  0.1843355399999993
  0.4770747999999969  0.4778075500000014  0.0027143000000009
  0.0217498399999982  0.5255644699999991  0.9945513799999972
  0.9776893399999977  0.3774615600000004  0.6060916799999987
  0.0222629599999991  0.1204025700000031  0.3931026400000022
  0.8738978200000034  0.3389436300000028  0.8433180700000023
  0.1217622500000033  0.5668876900000015  0.7743078999999966
  0.1233745400000004  0.1630063599999971  0.1548886400000029
  0.3775563800000015  0.4336087699999993  0.2275556100000031
  0.2267060100000009  0.7252459500000015  0.0052426800000021
  0.7787892400000018  0.7794771699999998  0.9980391699999984
  0.6280040899999975  0.5887189899999967  0.8403796099999994
  0.7703288900000018  0.3783196700000033  0.3965890699999974
  0.8701821800000005  0.8093599199999986  0.7580491300000034
  0.8737345199999993  0.4129835199999974  0.1551329500000023
  0.1262709700000002  0.6833214600000019  0.2268820999999974
  0.9725979899999970  0.9746004599999978  0.0041044499999998
  0.5277769200000009  0.0196747800000026  0.9953683399999989
  0.4756765999999999  0.8791966400000035  0.6066955699999994
  0.5292552200000031  0.6195417200000009  0.3969880100000012
  0.3782471399999991  0.8344144400000033  0.8436285399999974
  0.6233900300000030  0.0655840800000007  0.7745022800000001
  0.6249108000000021  0.6617662499999994  0.1540226099999984
  0.8764816300000007  0.9339208000000028  0.2292165400000030
  0.7248748000000020  0.2276857499999991  0.0044654599999987
  0.2747197599999964  0.2743214999999992  0.9958072499999986
  0.2280869100000018  0.1301138099999974  0.6076208899999997
  0.2717783399999973  0.8702430700000008  0.3934667899999980
  0.1262309399999992  0.0871889900000014  0.8437155499999989
  0.3734625700000009  0.3164965100000003  0.7706845800000011
  0.3735922199999990  0.9126243600000024  0.1552469200000033
  0.6268817999999996  0.1836774900000009  0.2265414900000025
  0.9970545099999981  0.4524922399999980  0.8044333200000011
  0.2481964999999988  0.7021599600000030  0.8112425899999991
  0.0005341999999970  0.0499093700000017  0.1954166800000010
  0.2502357400000008  0.2982156599999968  0.1919353700000030
  0.7519467600000027  0.7063046999999969  0.8159577799999980
  0.9985608400000032  0.9505799800000005  0.8085068899999968
  0.7504041500000014  0.3006223800000001  0.1959036800000007
  0.0000599800000032  0.5479077800000027  0.1907863300000017
  0.5014430199999964  0.9483223699999996  0.8051540900000020
  0.7494685200000006  0.2010971600000033  0.8108794999999986
  0.5010911399999998  0.5487241499999982  0.1951266299999972
  0.7502874700000035  0.7982574899999975  0.1915129799999988
  0.2499862499999992  0.2012154900000027  0.8055290599999978
  0.5000872399999992  0.4519506600000014  0.8065564899999984
  0.2510913500000029  0.7994206899999980  0.1963412099999999
  0.4999553399999996  0.0476025600000014  0.1922451599999988
  0.0010294200000018  0.2508869099999984  0.9988974299999995
  0.2492474800000011  0.4990104500000001  0.9990366099999974
  0.0045055699999992  0.3469110500000028  0.3662279099999992
  0.2454657099999977  0.5863789100000005  0.3661513999999997
  0.9956108499999985  0.1528017899999981  0.6334002899999973
  0.2522662299999965  0.4134026700000035  0.6334489099999985
  0.7475856300000032  0.4972736100000006  0.0000648299999995
  0.0036006300000011  0.7536911899999978  0.0066378100000009
  0.7562325299999983  0.5969959700000018  0.3627020500000029
  0.9948588099999967  0.8365093600000009  0.3678436000000005
  0.7452012500000009  0.3974231300000000  0.6337952299999969
  0.0102485900000033  0.6630342500000026  0.6315050400000004
  0.4967439200000001  0.7479216600000029  0.0033998299999993
  0.7516008799999980  0.0054972599999985  0.0064678299999983
  0.5056484999999995  0.8463254500000019  0.3681934600000005
  0.7443362300000018  0.0870683799999981  0.3673487200000025
  0.4886911600000019  0.6541191199999972  0.6348514700000010
  0.7553768100000013  0.9180875699999973  0.6320963300000031
  0.2509327100000007  0.0007129199999980  0.9995810200000008
  0.4995898299999979  0.2489993299999966  0.0002891399999996
  0.2551397900000012  0.0968976899999987  0.3671208499999992
  0.4951193400000022  0.3369404700000018  0.3679800499999999
  0.2444686799999971  0.9038430499999990  0.6338154199999977
  0.5045273300000019  0.1608039300000002  0.6340766100000010

  0.00000000E+00  0.00000000E+00  0.00000000E+00
  0.00000000E+00  0.00000000E+00  0.00000000E+00
  0.00000000E+00  0.00000000E+00  0.00000000E+00
  0.00000000E+00  0.00000000E+00  0.00000000E+00
  0.00000000E+00  0.00000000E+00  0.00000000E+00
  0.00000000E+00  0.00000000E+00  0.00000000E+00
  0.00000000E+00  0.00000000E+00  0.00000000E+00
  0.00000000E+00  0.00000000E+00  0.00000000E+00
  0.00000000E+00  0.00000000E+00  0.00000000E+00
  0.00000000E+00  0.00000000E+00  0.00000000E+00
  0.00000000E+00  0.00000000E+00  0.00000000E+00
  0.00000000E+00  0.00000000E+00  0.00000000E+00
  0.00000000E+00  0.00000000E+00  0.00000000E+00
  0.00000000E+00  0.00000000E+00  0.00000000E+00
  0.00000000E+00  0.00000000E+00  0.00000000E+00
  0.00000000E+00  0.00000000E+00  0.00000000E+00
  0.00000000E+00  0.00000000E+00  0.00000000E+00
  0.00000000E+00  0.00000000E+00  0.00000000E+00
  0.00000000E+00  0.00000000E+00  0.00000000E+00
  0.00000000E+00  0.00000000E+00  0.00000000E+00
  0.00000000E+00  0.00000000E+00  0.00000000E+00
  0.00000000E+00  0.00000000E+00  0.00000000E+00
  0.00000000E+00  0.00000000E+00  0.00000000E+00
  0.00000000E+00  0.00000000E+00  0.00000000E+00
  0.00000000E+00  0.00000000E+00  0.00000000E+00
  0.00000000E+00  0.00000000E+00  0.00000000E+00
  0.00000000E+00  0.00000000E+00  0.00000000E+00
  0.00000000E+00  0.00000000E+00  0.00000000E+00
  0.00000000E+00  0.00000000E+00  0.00000000E+00
  0.00000000E+00  0.00000000E+00  0.00000000E+00
  0.00000000E+00  0.00000000E+00  0.00000000E+00
  0.00000000E+00  0.00000000E+00  0.00000000E+00
  0.00000000E+00  0.00000000E+00  0.00000000E+00
  0.00000000E+00  0.00000000E+00  0.00000000E+00
  0.00000000E+00  0.00000000E+00  0.00000000E+00
  0.00000000E+00  0.00000000E+00  0.00000000E+00
  0.00000000E+00  0.00000000E+00  0.00000000E+00
  0.00000000E+00  0.00000000E+00  0.00000000E+00
  0.00000000E+00  0.00000000E+00  0.00000000E+00
  0.00000000E+00  0.00000000E+00  0.00000000E+00
  0.00000000E+00  0.00000000E+00  0.00000000E+00
  0.00000000E+00  0.00000000E+00  0.00000000E+00
  0.00000000E+00  0.00000000E+00  0.00000000E+00
  0.00000000E+00  0.00000000E+00  0.00000000E+00
  0.00000000E+00  0.00000000E+00  0.00000000E+00
  0.00000000E+00  0.00000000E+00  0.00000000E+00
  0.00000000E+00  0.00000000E+00  0.00000000E+00
  0.00000000E+00  0.00000000E+00  0.00000000E+00
  0.00000000E+00  0.00000000E+00  0.00000000E+00
  0.00000000E+00  0.00000000E+00  0.00000000E+00
  0.00000000E+00  0.00000000E+00  0.00000000E+00
  0.00000000E+00  0.00000000E+00  0.00000000E+00
  0.00000000E+00  0.00000000E+00  0.00000000E+00
  0.00000000E+00  0.00000000E+00  0.00000000E+00
  0.00000000E+00  0.00000000E+00  0.00000000E+00
  0.00000000E+00  0.00000000E+00  0.00000000E+00
  0.00000000E+00  0.00000000E+00  0.00000000E+00
  0.00000000E+00  0.00000000E+00  0.00000000E+00
  0.00000000E+00  0.00000000E+00  0.00000000E+00
  0.00000000E+00  0.00000000E+00  0.00000000E+00
  0.00000000E+00  0.00000000E+00  0.00000000E+00
  0.00000000E+00  0.00000000E+00  0.00000000E+00
  0.00000000E+00  0.00000000E+00  0.00000000E+00
  0.00000000E+00  0.00000000E+00  0.00000000E+00
  0.00000000E+00  0.00000000E+00  0.00000000E+00
  0.00000000E+00  0.00000000E+00  0.00000000E+00
  0.00000000E+00  0.00000000E+00  0.00000000E+00
  0.00000000E+00  0.00000000E+00  0.00000000E+00
  0.00000000E+00  0.00000000E+00  0.00000000E+00
  0.00000000E+00  0.00000000E+00  0.00000000E+00
  0.00000000E+00  0.00000000E+00  0.00000000E+00
  0.00000000E+00  0.00000000E+00  0.00000000E+00
  0.00000000E+00  0.00000000E+00  0.00000000E+00
  0.00000000E+00  0.00000000E+00  0.00000000E+00
  0.00000000E+00  0.00000000E+00  0.00000000E+00
  0.00000000E+00  0.00000000E+00  0.00000000E+00
  0.00000000E+00  0.00000000E+00  0.00000000E+00
  0.00000000E+00  0.00000000E+00  0.00000000E+00
  0.00000000E+00  0.00000000E+00  0.00000000E+00
  0.00000000E+00  0.00000000E+00  0.00000000E+00
  0.00000000E+00  0.00000000E+00  0.00000000E+00
  0.00000000E+00  0.00000000E+00  0.00000000E+00
  0.00000000E+00  0.00000000E+00  0.00000000E+00
  0.00000000E+00  0.00000000E+00  0.00000000E+00
  0.00000000E+00  0.00000000E+00  0.00000000E+00
  0.00000000E+00  0.00000000E+00  0.00000000E+00
  0.00000000E+00  0.00000000E+00  0.00000000E+00
  0.00000000E+00  0.00000000E+00  0.00000000E+00
  0.00000000E+00  0.00000000E+00  0.00000000E+00
  0.00000000E+00  0.00000000E+00  0.00000000E+00
  0.00000000E+00  0.00000000E+00  0.00000000E+00
  0.00000000E+00  0.00000000E+00  0.00000000E+00
  0.00000000E+00  0.00000000E+00  0.00000000E+00
  0.00000000E+00  0.00000000E+00  0.00000000E+00
  0.00000000E+00  0.00000000E+00  0.00000000E+00
