# Compound: Fe24Li31O16S24. Old comment: Fe24Li31O16S24
  1.0000000000
  7.8866538400  -7.9475567000   0.0601846200
  7.3433505600   7.9467915400  -2.8792872600
 -0.0478291200  -0.1071026000  10.5527142700
Fe    Li    O     S
   24    31    16    24
Direct
  0.2618900500   0.6645181200   0.6021894700
  0.2354073700   0.3352225800   0.3988611500
  0.1230164700   0.3258715100   0.8029694700
  0.3749642100   0.5792411600   0.8141153700
  0.8742673900   0.1752000700   0.1991362300
  0.1243678600   0.4215381100   0.1854567600
  0.0159945300   0.9163662100   0.6017554100
  0.9797293100   0.5848656300   0.3986149300
  0.8693551500   0.5741039700   0.7889974800
  0.1250129600   0.8294615900   0.8167369100
  0.6270150700   0.4262504700   0.1966504500
  0.8727632000   0.6688743100   0.1833459500
  0.7645887400   0.1628223100   0.6025256300
  0.7348818400   0.8290595100   0.3993016400
  0.6272936700   0.8174550400   0.7890734700
  0.8754724800   0.0792618600   0.8166490800
  0.3774314300   0.6759870600   0.1995048100
  0.6244508200   0.9203576200   0.1871815200
  0.5211325700   0.4218079000   0.6012347400
  0.4856133600   0.0854253800   0.3994035200
  0.3752059300   0.0738617700   0.8030687500
  0.6257875900   0.3286370500   0.8131642900
  0.1249733700   0.9242081400   0.1971729100
  0.3742614700   0.1699854600   0.1843355400
  0.4770748000   0.4778075500   0.0027143000
  0.0217498400   0.5255644700   0.9945513800
  0.9776893400   0.3774615600   0.6060916800
  0.0222629600   0.1204025700   0.3931026400
  0.8738978200   0.3389436300   0.8433180700
  0.1217622500   0.5668876900   0.7743079000
  0.1233745400   0.1630063600   0.1548886400
  0.3775563800   0.4336087700   0.2275556100
  0.2267060100   0.7252459500   0.0052426800
  0.7787892400   0.7794771700  -0.0019608300
  0.6280040900   0.5887189900   0.8403796100
  0.7703288900   0.3783196700   0.3965890700
  0.8701821800   0.8093599200   0.7580491300
  0.8737345200   0.4129835200   0.1551329500
  0.1262709700   0.6833214600   0.2268821000
  0.9725979900   0.9746004600   0.0041044500
  0.5277769200   0.0196747800   0.9953683400
  0.4756766000   0.8791966400   0.6066955700
  0.5292552200   0.6195417200   0.3969880100
  0.3782471400   0.8344144400   0.8436285400
  0.6233900300   0.0655840800   0.7745022800
  0.6249108000   0.6617662500   0.1540226100
  0.8764816300   0.9339208000   0.2292165400
  0.7248748000   0.2276857500   0.0044654600
  0.2747197600   0.2743215000   0.9958072500
  0.2280869100   0.1301138100   0.6076208900
  0.2717783400   0.8702430700   0.3934667900
  0.1262309400   0.0871889900   0.8437155500
  0.3734625700   0.3164965100   0.7706845800
  0.3735922200   0.9126243600   0.1552469200
  0.6268818000   0.1836774900   0.2265414900
  0.9970545100   0.4524922400   0.8044333200
  0.2481965000   0.7021599600   0.8112425900
  0.0005342000   0.0499093700   0.1954166800
  0.2502357400   0.2982156600   0.1919353700
  0.7519467600   0.7063047000   0.8159577800
 -0.0014391600   0.9505799800   0.8085068900
  0.7504041500   0.3006223800   0.1959036800
  0.0000599800   0.5479077800   0.1907863300
  0.5014430200   0.9483223700   0.8051540900
  0.7494685200   0.2010971600   0.8108795000
  0.5010911400   0.5487241500   0.1951266300
  0.7502874700   0.7982574900   0.1915129800
  0.2499862500   0.2012154900   0.8055290600
  0.5000872400   0.4519506600   0.8065564900
  0.2510913500   0.7994206900   0.1963412100
  0.4999553400   0.0476025600   0.1922451600
  0.0010294200   0.2508869100  -0.0011025700
  0.2492474800   0.4990104500  -0.0009633900
  0.0045055700   0.3469110500   0.3662279100
  0.2454657100   0.5863789100   0.3661514000
  0.9956108500   0.1528017900   0.6334002900
  0.2522662300   0.4134026700   0.6334489100
  0.7475856300   0.4972736100   0.0000648300
  0.0036006300   0.7536911900   0.0066378100
  0.7562325300   0.5969959700   0.3627020500
  0.9948588100   0.8365093600   0.3678436000
  0.7452012500   0.3974231300   0.6337952300
  0.0102485900   0.6630342500   0.6315050400
  0.4967439200   0.7479216600   0.0033998300
  0.7516008800   0.0054972600   0.0064678300
  0.5056485000   0.8463254500   0.3681934600
  0.7443362300   0.0870683800   0.3673487200
  0.4886911600   0.6541191200   0.6348514700
  0.7553768100   0.9180875700   0.6320963300
  0.2509327100   0.0007129200  -0.0004189800
  0.4995898300   0.2489993300   0.0002891400
  0.2551397900   0.0968976900   0.3671208500
  0.4951193400   0.3369404700   0.3679800500
  0.2444686800   0.9038430500   0.6338154200
  0.5045273300   0.1608039300   0.6340766100
