# Compound: Li4Fe2S2O2. Old comment: Fe2Li4O2S2
  1.0000000000
  3.9726623000   0.0000000000   0.0000000000
  0.0000000000   3.9726623000   0.0000000000
  0.0000000000   0.0000000000   7.7072771300
Li    Fe    S     O
    4     2     2     2
Direct
  0.5000000000   0.5000000000   0.7500000000
  0.5000000000   0.5000000000   0.2500000000
  0.5000000000   0.0000000000   0.5000000000
  0.0000000000   0.5000000000   0.0000000000
  0.5000000000   0.0000000000   0.0000000000
  0.0000000000   0.5000000000   0.5000000000
  0.0000000000   0.0000000000   0.7500000000
  0.0000000000   0.0000000000   0.2500000000
  0.5000000000   0.5000000000   0.0000000000
  0.5000000000   0.5000000000   0.5000000000
