# Compound: Li64Fe32S32O32. Old comment: FeLi2OS supercell_13
  1.0000000000
 15.3756371200   0.0000000000   0.0000000000
  0.0000000000  11.2475708400   0.0825900600
  0.0000000000   0.0847287000  11.2472779400
Li    Fe    S     O
   64    32    32    32
Direct
  0.1252568000   0.2755358800   0.4745398100
  0.6252568000   0.2755358800   0.4745398100
  0.1252568000   0.7755358800   0.4745398100
  0.6252568000   0.7755358800   0.4745398100
  0.1252568000   0.2755358800   0.9745398100
  0.6252568000   0.2755358800   0.9745398100
  0.1252568000   0.7755358800   0.9745398100
  0.6252568000   0.7755358800   0.9745398100
  0.1252568000   0.4744641200   0.2754601900
  0.6252568000   0.4744641200   0.2754601900
  0.1252568000   0.9744641200   0.2754601900
  0.6252568000   0.9744641200   0.2754601900
  0.1252568000   0.4744641200   0.7754601900
  0.6252568000   0.4744641200   0.7754601900
  0.1252568000   0.9744641200   0.7754601900
  0.6252568000   0.9744641200   0.7754601900
  0.3747432000   0.2244641200   0.0254601900
  0.8747432000   0.2244641200   0.0254601900
  0.3747432000   0.7244641200   0.0254601900
  0.8747432000   0.7244641200   0.0254601900
  0.3747432000   0.2244641200   0.5254601900
  0.8747432000   0.2244641200   0.5254601900
  0.3747432000   0.7244641200   0.5254601900
  0.8747432000   0.7244641200   0.5254601900
  0.3747432000   0.0255358800   0.2245398100
  0.8747432000   0.0255358800   0.2245398100
  0.3747432000   0.5255358800   0.2245398100
  0.8747432000   0.5255358800   0.2245398100
  0.3747432000   0.0255358800   0.7245398100
  0.8747432000   0.0255358800   0.7245398100
  0.3747432000   0.5255358800   0.7245398100
  0.8747432000   0.5255358800   0.7245398100
  0.2760023600   0.3750000000   0.3750000000
  0.7760023600   0.3750000000   0.3750000000
  0.2760023600   0.8750000000   0.3750000000
  0.7760023600   0.8750000000   0.3750000000
  0.2760023600   0.3750000000   0.8750000000
  0.7760023600   0.3750000000   0.8750000000
  0.2760023600   0.8750000000   0.8750000000
  0.7760023600   0.8750000000   0.8750000000
  0.2239976400   0.1250000000   0.1250000000
  0.7239976400   0.1250000000   0.1250000000
  0.2239976400   0.6250000000   0.1250000000
  0.7239976400   0.6250000000   0.1250000000
  0.2239976400   0.1250000000   0.6250000000
  0.7239976400   0.1250000000   0.6250000000
  0.2239976400   0.6250000000   0.6250000000
  0.7239976400   0.6250000000   0.6250000000
  0.4999407250   0.3750000000   0.1250000000
  0.9999407250   0.3750000000   0.1250000000
  0.4999407250   0.8750000000   0.1250000000
  0.9999407250   0.8750000000   0.1250000000
  0.4999407250   0.3750000000   0.6250000000
  0.9999407250   0.3750000000   0.6250000000
  0.4999407250   0.8750000000   0.6250000000
  0.9999407250   0.8750000000   0.6250000000
  0.0000592750   0.1250000000   0.3750000000
  0.5000592750   0.1250000000   0.3750000000
  0.0000592750   0.6250000000   0.3750000000
  0.5000592750   0.6250000000   0.3750000000
  0.0000592750   0.1250000000   0.8750000000
  0.5000592750   0.1250000000   0.8750000000
  0.0000592750   0.6250000000   0.8750000000
  0.5000592750   0.6250000000   0.8750000000
  0.4796539632   0.3755249182   0.3750000000
  0.9791290450   0.3750000000   0.3750000000
  0.4791290450   0.8750000000   0.3750000000
  0.9791290450   0.8750000000   0.3750000000
  0.4791290450   0.3750000000   0.8750000000
  0.9791290450   0.3750000000   0.8750000000
  0.4791290450   0.8750000000   0.8750000000
  0.9791290450   0.8750000000   0.8750000000
  0.0208709550   0.1250000000   0.1250000000
  0.5208709550   0.1250000000   0.1250000000
  0.0208709550   0.6250000000   0.1250000000
  0.5208709550   0.6250000000   0.1250000000
  0.0208709550   0.1250000000   0.6250000000
  0.5208709550   0.1250000000   0.6250000000
  0.0208709550   0.6250000000   0.6250000000
  0.5208709550   0.6250000000   0.6250000000
  0.2500348650   0.3750000000   0.1250000000
  0.7500348650   0.3750000000   0.1250000000
  0.2500348650   0.8750000000   0.1250000000
  0.7500348650   0.8750000000   0.1250000000
  0.2500348650   0.3750000000   0.6250000000
  0.7500348650   0.3750000000   0.6250000000
  0.2500348650   0.8750000000   0.6250000000
  0.7500348650   0.8750000000   0.6250000000
  0.2499651350   0.1250000000   0.3750000000
  0.7499651350   0.1250000000   0.3750000000
  0.2499651350   0.6250000000   0.3750000000
  0.7499651350   0.6250000000   0.3750000000
  0.2499651350   0.1250000000   0.8750000000
  0.7499651350   0.1250000000   0.8750000000
  0.2499651350   0.6250000000   0.8750000000
  0.7499651350   0.6250000000   0.8750000000
  0.1254690650   0.4995988100   0.4995895550
  0.6254690650   0.4995988100   0.4995895550
  0.1254690650   0.9995988100   0.4995895550
  0.6254690650   0.9995988100   0.4995895550
  0.1254690650   0.4995988100   0.9995895550
  0.6254690650   0.4995988100   0.9995895550
  0.1254690650   0.9995988100   0.9995895550
  0.6254690650   0.9995988100   0.9995895550
  0.1254690650   0.2504011900   0.2504104450
  0.6254690650   0.2504011900   0.2504104450
  0.1254690650   0.7504011900   0.2504104450
  0.6254690650   0.7504011900   0.2504104450
  0.1254690650   0.2504011900   0.7504104450
  0.6254690650   0.2504011900   0.7504104450
  0.1254690650   0.7504011900   0.7504104450
  0.6254690650   0.7504011900   0.7504104450
  0.3745309350   0.0004011900   0.0004104450
  0.8745309350   0.0004011900   0.0004104450
  0.3745309350   0.5004011900   0.0004104450
  0.8745309350   0.5004011900   0.0004104450
  0.3745309350   0.0004011900   0.5004104450
  0.8745309350   0.0004011900   0.5004104450
  0.3745309350   0.5004011900   0.5004104450
  0.8745309350   0.5004011900   0.5004104450
  0.3745309350   0.2495988100   0.2495895550
  0.8745309350   0.2495988100   0.2495895550
  0.3745309350   0.7495988100   0.2495895550
  0.8745309350   0.7495988100   0.2495895550
  0.3745309350   0.2495988100   0.7495895550
  0.8745309350   0.2495988100   0.7495895550
  0.3745309350   0.7495988100   0.7495895550
  0.8745309350   0.7495988100   0.7495895550
  0.0000000000   0.2500000000   1.0000000000
  0.5000000000   0.2500000000   1.0000000000
  0.0000000000   0.7500000000   1.0000000000
  0.5000000000   0.7500000000   1.0000000000
  0.0000000000   0.2500000000   0.5000000000
  0.5000000000   0.2500000000   0.5000000000
  0.0000000000   0.7500000000   0.5000000000
  0.5000000000   0.7500000000   0.5000000000
  0.0000000000   1.0000000000   0.2500000000
  0.5000000000   1.0000000000   0.2500000000
  0.0000000000   0.5000000000   0.2500000000
  0.5000000000   0.5000000000   0.2500000000
  0.0000000000   1.0000000000   0.7500000000
  0.5000000000   1.0000000000   0.7500000000
  0.0000000000   0.5000000000   0.7500000000
  0.5000000000   0.5000000000   0.7500000000
  0.2500000000   0.2500000000   1.0000000000
  0.7500000000   0.2500000000   1.0000000000
  0.2500000000   0.7500000000   1.0000000000
  0.7500000000   0.7500000000   1.0000000000
  0.2500000000   0.2500000000   0.5000000000
  0.7500000000   0.2500000000   0.5000000000
  0.2500000000   0.7500000000   0.5000000000
  0.7500000000   0.7500000000   0.5000000000
  0.2500000000   1.0000000000   0.2500000000
  0.7500000000   1.0000000000   0.2500000000
  0.2500000000   0.5000000000   0.2500000000
  0.7500000000   0.5000000000   0.2500000000
  0.2500000000   1.0000000000   0.7500000000
  0.7500000000   1.0000000000   0.7500000000
  0.2500000000   0.5000000000   0.7500000000
  0.7500000000   0.5000000000   0.7500000000
