# Compound: Li4O2S2Fe2. Old comment: LFSO-Li2FeSO-201025-015107-3451c2 RELAXED HIGH SPEC RELAXED
  1.0000000000
  3.9119090800  -0.0191476200   0.0000000000
  0.0274039400   5.6091674500   0.0000000000
  0.0000000000   0.0000000000   5.5978100500
Li    O     S     Fe
    4     2     2     2
Direct
  0.1062511700   0.7255509400   0.7129629700
  0.1062511700   0.2255509400   0.2870370300
  0.6062837500   0.4379612000   0.5449243000
  0.6062837500   0.9379612000   0.4550757000
  0.6062719300   0.7353847500   0.7475301800
  0.6062719300   0.2353847500   0.2524698200
  0.1062825300   0.7402389300   0.2405889500
  0.1062825300   0.2402389300   0.7594110500
  0.6062816100   0.0245061800   0.9600692500
  0.6062816100   0.5245061800   0.0399307500
