# Compound: Li2O2S2Fe3. Old comment: Fe3
   1.00000000000000     
     3.7825715899999999    0.0000000000000000    0.0000000000000000
     0.0000000000000000    5.6112618999999997    0.0667433300000000
     0.0000000000000000   -0.1424780200000000    5.6098498100000000
   Li   O    S    Fe
     2     2     2     3
Direct
  0.3155729300000019  0.5000000000000000  0.0000000000000000
  0.3155729300000019  0.0000000000000000  0.5000000000000000
  0.3184450999999981  0.2499722599999998  0.7500277400000002
  0.3184450999999981  0.7500277400000002  0.2499722599999998
  0.8185618099999985  0.2364877500000020  0.2364877500000020
  0.8185618099999985  0.7635122499999980  0.7635122499999980
  0.8184131300000033  0.6785379000000020  0.3214620999999980
  0.8184131300000033  0.3214620999999980  0.6785379000000020
  0.3216620899999967  0.0000000000000000  0.0000000000000000
 
  0.00000000E+00  0.00000000E+00  0.00000000E+00
  0.00000000E+00  0.00000000E+00  0.00000000E+00
  0.00000000E+00  0.00000000E+00  0.00000000E+00
  0.00000000E+00  0.00000000E+00  0.00000000E+00
  0.00000000E+00  0.00000000E+00  0.00000000E+00
  0.00000000E+00  0.00000000E+00  0.00000000E+00
  0.00000000E+00  0.00000000E+00  0.00000000E+00
  0.00000000E+00  0.00000000E+00  0.00000000E+00
  0.00000000E+00  0.00000000E+00  0.00000000E+00
