# Compound: Li2O2S2Fe3. Old comment: Fe3Li2O2S2
  1.0000000000
  3.7825715900   0.0000000000   0.0000000000
  0.0000000000   5.6112619000   0.0667433300
  0.0000000000  -0.1424780200   5.6098498100
Li    O     S     Fe
    2     2     2     3
Direct
  0.3155729300   0.5000000000   0.0000000000
  0.3155729300   0.0000000000   0.5000000000
  0.3184451000   0.2499722600   0.7500277400
  0.3184451000   0.7500277400   0.2499722600
  0.8185618100   0.2364877500   0.2364877500
  0.8185618100   0.7635122500   0.7635122500
  0.8184131300   0.6785379000   0.3214621000
  0.8184131300   0.3214621000   0.6785379000
  0.3216620900   0.0000000000   0.0000000000
