# No comment
0
Gamma
            3             3             2
  0.000000000   0.000000000   0.000000000
