# Compound: Li16O16S24Fe32. Old comment:
   1.00000000000000     
    11.1122337400000006    0.0000000000000000   -0.0002903400000000
     0.0000000000000000   11.1174519400000005    0.0000000000000000
    -2.7751089800000002    0.0000000000000000   10.1987222099999997
   Li   O    S    Fe
    16    16    24    32
Direct
  0.2889496949999995  0.4693390950000023  0.1558361599999998
  0.7889496949999995  0.4693390950000023  0.1558361599999998
  0.2889496949999995  0.9693390950000023  0.1558361599999998
  0.7889496949999995  0.9693390950000023  0.1558361599999998
  0.0464697150000006  0.2193497600000001  0.1858677000000029
  0.5464697150000006  0.2193497600000001  0.1858677000000029
  0.0464697150000006  0.7193497600000001  0.1858677000000029
  0.5464697150000006  0.7193497600000001  0.1858677000000029
  0.4535302849999994  0.4693497600000001  0.8141322999999971
  0.9535302849999994  0.4693497600000001  0.8141322999999971
  0.4535302849999994  0.9693497600000001  0.8141322999999971
  0.9535302849999994  0.9693497600000001  0.8141322999999971
  0.2110503050000005  0.2193390950000023  0.8441638400000002
  0.7110503050000005  0.2193390950000023  0.8441638400000002
  0.2110503050000005  0.7193390950000023  0.8441638400000002
  0.7110503050000005  0.7193390950000023  0.8441638400000002
  0.0765497100000019  0.0953099549999976  0.8025059300000024
  0.5765497100000019  0.0953099549999976  0.8025059300000024
  0.0765497100000019  0.5953099549999976  0.8025059300000024
  0.5765497100000019  0.5953099549999976  0.8025059300000024
  0.3247046649999987  0.3433817499999989  0.8025038299999991
  0.8247046649999987  0.3433817499999989  0.8025038299999991
  0.3247046649999987  0.8433817499999989  0.8025038299999991
  0.8247046649999987  0.8433817499999989  0.8025038299999991
  0.1752953350000013  0.0933817499999989  0.1974961700000009
  0.6752953350000013  0.0933817499999989  0.1974961700000009
  0.1752953350000013  0.5933817499999989  0.1974961700000009
  0.6752953350000013  0.5933817499999989  0.1974961700000009
  0.4234502899999981  0.3453099549999976  0.1974940699999976
  0.9234502899999981  0.3453099549999976  0.1974940699999976
  0.4234502899999981  0.8453099549999976  0.1974940699999976
  0.9234502899999981  0.8453099549999976  0.1974940699999976
  0.2186846299999985  0.3452339500000008  0.3710247599999974
  0.7186846299999985  0.3452339500000008  0.3710247599999974
  0.2186846299999985  0.8452339500000008  0.3710247599999974
  0.7186846299999985  0.8452339500000008  0.3710247599999974
  0.4668166000000014  0.0934489699999972  0.3710239899999976
  0.9668166000000014  0.0934489699999972  0.3710239899999976
  0.4668166000000014  0.5934489699999972  0.3710239899999976
  0.9668166000000014  0.5934489699999972  0.3710239899999976
  0.0331833999999986  0.3434489699999972  0.6289760100000024
  0.5331833999999986  0.3434489699999972  0.6289760100000024
  0.0331833999999986  0.8434489699999972  0.6289760100000024
  0.5331833999999986  0.8434489699999972  0.6289760100000024
  0.2813153700000015  0.0952339500000008  0.6289752400000026
  0.7813153700000015  0.0952339500000008  0.6289752400000026
  0.2813153700000015  0.5952339500000008  0.6289752400000026
  0.7813153700000015  0.5952339500000008  0.6289752400000026
  0.1243927900000017  0.3443430599999999  0.0000041199999998
  0.6243927900000017  0.3443430599999999  0.0000041199999998
  0.1243927900000017  0.8443430599999999  0.0000041199999998
  0.6243927900000017  0.8443430599999999  0.0000041199999998
  0.3756072099999983  0.0943430599999999  0.9999958800000002
  0.8756072099999983  0.0943430599999999  0.9999958800000002
  0.3756072099999983  0.5943430599999999  0.9999958800000002
  0.8756072099999983  0.5943430599999999  0.9999958800000002
  0.0382442550000022  0.1063479900000033  0.6063230600000011
  0.5382442550000022  0.1063479900000033  0.6063230600000011
  0.0382442550000022  0.6063479900000033  0.6063230600000011
  0.5382442550000022  0.6063479900000033  0.6063230600000011
  0.2649271249999998  0.3323265100000015  0.6063276300000027
  0.7649271249999998  0.3323265100000015  0.6063276300000027
  0.2649271249999998  0.8323265100000015  0.6063276300000027
  0.7649271249999998  0.8323265100000015  0.6063276300000027
  0.2350728750000002  0.0823265100000015  0.3936723699999973
  0.7350728750000002  0.0823265100000015  0.3936723699999973
  0.2350728750000002  0.5823265100000015  0.3936723699999973
  0.7350728750000002  0.5823265100000015  0.3936723699999973
  0.4617557449999978  0.3563479900000033  0.3936769399999989
  0.9617557449999978  0.3563479900000033  0.3936769399999989
  0.4617557449999978  0.8563479900000033  0.3936769399999989
  0.9617557449999978  0.8563479900000033  0.3936769399999989
  0.0384839800000023  0.4693640400000021  0.1539733099999978
  0.5384839800000023  0.4693640400000021  0.1539733099999978
  0.0384839800000023  0.9693640400000021  0.1539733099999978
  0.5384839800000023  0.9693640400000021  0.1539733099999978
  0.2886165749999989  0.2184574133000012  0.1544752499999973
  0.7886165749999989  0.2193569000000011  0.1544752499999973
  0.2886165749999989  0.7193569000000011  0.1544752499999973
  0.7886165749999989  0.7193569000000011  0.1544752499999973
  0.2113834250000011  0.4693569000000011  0.8455247500000027
  0.7113834250000011  0.4693569000000011  0.8455247500000027
  0.2113834250000011  0.9693569000000011  0.8455247500000027
  0.7113834250000011  0.9693569000000011  0.8455247500000027
  0.4615160199999977  0.2193640400000021  0.8460266900000022
  0.9615160199999977  0.2193640400000021  0.8460266900000022
  0.4615160199999977  0.7193640400000021  0.8460266900000022
  0.9615160199999977  0.7193640400000021  0.8460266900000022
 
  0.00000000E+00  0.00000000E+00  0.00000000E+00
  0.00000000E+00  0.00000000E+00  0.00000000E+00
  0.00000000E+00  0.00000000E+00  0.00000000E+00
  0.00000000E+00  0.00000000E+00  0.00000000E+00
  0.00000000E+00  0.00000000E+00  0.00000000E+00
  0.00000000E+00  0.00000000E+00  0.00000000E+00
  0.00000000E+00  0.00000000E+00  0.00000000E+00
  0.00000000E+00  0.00000000E+00  0.00000000E+00
  0.00000000E+00  0.00000000E+00  0.00000000E+00
  0.00000000E+00  0.00000000E+00  0.00000000E+00
  0.00000000E+00  0.00000000E+00  0.00000000E+00
  0.00000000E+00  0.00000000E+00  0.00000000E+00
  0.00000000E+00  0.00000000E+00  0.00000000E+00
  0.00000000E+00  0.00000000E+00  0.00000000E+00
  0.00000000E+00  0.00000000E+00  0.00000000E+00
  0.00000000E+00  0.00000000E+00  0.00000000E+00
  0.00000000E+00  0.00000000E+00  0.00000000E+00
  0.00000000E+00  0.00000000E+00  0.00000000E+00
  0.00000000E+00  0.00000000E+00  0.00000000E+00
  0.00000000E+00  0.00000000E+00  0.00000000E+00
  0.00000000E+00  0.00000000E+00  0.00000000E+00
  0.00000000E+00  0.00000000E+00  0.00000000E+00
  0.00000000E+00  0.00000000E+00  0.00000000E+00
  0.00000000E+00  0.00000000E+00  0.00000000E+00
  0.00000000E+00  0.00000000E+00  0.00000000E+00
  0.00000000E+00  0.00000000E+00  0.00000000E+00
  0.00000000E+00  0.00000000E+00  0.00000000E+00
  0.00000000E+00  0.00000000E+00  0.00000000E+00
  0.00000000E+00  0.00000000E+00  0.00000000E+00
  0.00000000E+00  0.00000000E+00  0.00000000E+00
  0.00000000E+00  0.00000000E+00  0.00000000E+00
  0.00000000E+00  0.00000000E+00  0.00000000E+00
  0.00000000E+00  0.00000000E+00  0.00000000E+00
  0.00000000E+00  0.00000000E+00  0.00000000E+00
  0.00000000E+00  0.00000000E+00  0.00000000E+00
  0.00000000E+00  0.00000000E+00  0.00000000E+00
  0.00000000E+00  0.00000000E+00  0.00000000E+00
  0.00000000E+00  0.00000000E+00  0.00000000E+00
  0.00000000E+00  0.00000000E+00  0.00000000E+00
  0.00000000E+00  0.00000000E+00  0.00000000E+00
  0.00000000E+00  0.00000000E+00  0.00000000E+00
  0.00000000E+00  0.00000000E+00  0.00000000E+00
  0.00000000E+00  0.00000000E+00  0.00000000E+00
  0.00000000E+00  0.00000000E+00  0.00000000E+00
  0.00000000E+00  0.00000000E+00  0.00000000E+00
  0.00000000E+00  0.00000000E+00  0.00000000E+00
  0.00000000E+00  0.00000000E+00  0.00000000E+00
  0.00000000E+00  0.00000000E+00  0.00000000E+00
  0.00000000E+00  0.00000000E+00  0.00000000E+00
  0.00000000E+00  0.00000000E+00  0.00000000E+00
  0.00000000E+00  0.00000000E+00  0.00000000E+00
  0.00000000E+00  0.00000000E+00  0.00000000E+00
  0.00000000E+00  0.00000000E+00  0.00000000E+00
  0.00000000E+00  0.00000000E+00  0.00000000E+00
  0.00000000E+00  0.00000000E+00  0.00000000E+00
  0.00000000E+00  0.00000000E+00  0.00000000E+00
  0.00000000E+00  0.00000000E+00  0.00000000E+00
  0.00000000E+00  0.00000000E+00  0.00000000E+00
  0.00000000E+00  0.00000000E+00  0.00000000E+00
  0.00000000E+00  0.00000000E+00  0.00000000E+00
  0.00000000E+00  0.00000000E+00  0.00000000E+00
  0.00000000E+00  0.00000000E+00  0.00000000E+00
  0.00000000E+00  0.00000000E+00  0.00000000E+00
  0.00000000E+00  0.00000000E+00  0.00000000E+00
  0.00000000E+00  0.00000000E+00  0.00000000E+00
  0.00000000E+00  0.00000000E+00  0.00000000E+00
  0.00000000E+00  0.00000000E+00  0.00000000E+00
  0.00000000E+00  0.00000000E+00  0.00000000E+00
  0.00000000E+00  0.00000000E+00  0.00000000E+00
  0.00000000E+00  0.00000000E+00  0.00000000E+00
  0.00000000E+00  0.00000000E+00  0.00000000E+00
  0.00000000E+00  0.00000000E+00  0.00000000E+00
  0.00000000E+00  0.00000000E+00  0.00000000E+00
  0.00000000E+00  0.00000000E+00  0.00000000E+00
  0.00000000E+00  0.00000000E+00  0.00000000E+00
  0.00000000E+00  0.00000000E+00  0.00000000E+00
  0.00000000E+00  0.00000000E+00  0.00000000E+00
  0.00000000E+00  0.00000000E+00  0.00000000E+00
  0.00000000E+00  0.00000000E+00  0.00000000E+00
  0.00000000E+00  0.00000000E+00  0.00000000E+00
  0.00000000E+00  0.00000000E+00  0.00000000E+00
  0.00000000E+00  0.00000000E+00  0.00000000E+00
  0.00000000E+00  0.00000000E+00  0.00000000E+00
  0.00000000E+00  0.00000000E+00  0.00000000E+00
  0.00000000E+00  0.00000000E+00  0.00000000E+00
  0.00000000E+00  0.00000000E+00  0.00000000E+00
  0.00000000E+00  0.00000000E+00  0.00000000E+00
  0.00000000E+00  0.00000000E+00  0.00000000E+00
