# Compound: Fe32Li31O16S32. Old comment: LFSO-Li2Fe2S2O-201022-042623-e6d3a9 MODE PUSHED PATH1 INIT
  1.0000000000
  7.6911861600  -7.6885056400   0.0000000100
  7.6884112800   7.6911136200  -0.0126780500
 -3.8335882400  -3.8349345400  12.8627506400
Fe    Li    O     S
   32    31    16    32
Direct
 -0.0261533600   0.0794866700   0.1586147600
  0.2246827700   0.3294530500   0.1593970100
  0.7243862300   0.3286887500   0.1581614500
 -0.0269127700   0.5796797200   0.1591052600
 -0.0252611100   0.4216882300   0.3414683400
  0.2231948500   0.6704517800   0.3412520000
  0.7144280900   0.6662708400   0.3468666400
 -0.0266112900  -0.0795321100   0.3411730900
 -0.0266250600   0.0793068000   0.6589023400
  0.2245022600   0.3300293700   0.6588701500
  0.7227516200   0.3285514500   0.6586993200
 -0.0252217900   0.5802766700   0.6585917700
 -0.0261726700   0.4207715100   0.8412788900
  0.2246745100   0.6700531200   0.8405177000
  0.7243969900   0.6705216200   0.8417571200
 -0.0269206000  -0.0794576200   0.8408252100
  0.4730738800   0.5806037700   0.1586117800
  0.7238794700   0.8293850600   0.1593999700
  0.2241970800   0.8295567500   0.1584620200
  0.4739621300   0.0801827300   0.1590378000
  0.4744436600  -0.0781530400   0.3411162400
  0.7227400400   0.1698780500   0.3413417700
  0.2245265600   0.1711423300   0.3411575200
  0.4814293900   0.4328775600   0.3468406300
  0.4814608000   0.5860948700   0.6531960300
  0.7144023900   0.8194325800   0.6532424000
  0.2231720400   0.8292023000   0.6588157900
  0.4744456300   0.0807359800   0.6589334500
  0.4730846800  -0.0780251100   0.8413429600
  0.7238819700   0.1698702400   0.8405338600
  0.2241767400   0.1709731500   0.8414833000
  0.4739443300   0.4210990200   0.8409134000
  0.0812363000   0.1428822500   0.0000223600
  0.8672676800   0.8567203300   0.0002908000
  0.8672682800   0.3563921200  -0.0003280000
  0.0812321900   0.6428560000  -0.0000472600
  0.1172278500   0.3936166900   0.5000171800
  0.3395155900   0.6109765000   0.5000044200
  0.8231840800   0.6034847300   0.5000063100
  0.6205326000   0.4006727600   0.5000286800
  0.0807358700   0.1434171200   0.5000098300
  0.8700795000   0.8563704000   0.5000207100
  0.8678426100   0.3559817700   0.5000010500
  0.0817631800   0.6426480100   0.5000267700
  0.1169397700   0.3930369700   0.0003557100
  0.3306057400   0.6066839600   0.0000178400
  0.8308712100   0.6071044900   0.0004962700
  0.6175490900   0.3938064700   0.0004536300
  0.5805629800   0.6434082400  -0.0005148900
  0.3675346800   0.3571500900   0.0005499200
  0.3675361500   0.8565990900  -0.0005668900
  0.5805750000   0.1439231900   0.0005095100
  0.6130884800   0.8849992300   0.5000121600
  0.8302470300   0.1070040300   0.5000064900
  0.3307759400   0.1059601000   0.4999958900
  0.1181011200   0.8935104300   0.5000025400
  0.3679391300   0.3538633700   0.5000044800
  0.3687146100   0.8555922300   0.4999958800
  0.5813152600   0.1424254600   0.5000090800
  0.6175515300   0.8933476900  -0.0004621300
  0.8308710900   0.1065859900  -0.0005243600
  0.3305912200   0.1066693900  -0.0000315400
  0.1169285000   0.8926862900  -0.0003807700
  0.2237712300   0.2497158300   0.5000096200
  0.4743730900   0.5002832600  -0.0000517500
 -0.0263946000   0.5001632300   0.0004042500
  0.2258096600   0.7500882700   0.5000607500
  0.2245368900   0.2503248200   0.0005274000
  0.4707767800   0.4929325200   0.5000429200
 -0.0277785100   0.5005340100   0.5000309200
  0.2245379000   0.7498194600  -0.0005635900
  0.7308287100   0.7534176500   0.5000090000
 -0.0263928700  -0.0002571500  -0.0004384100
  0.4743588400   0.0003470400   0.0000429400
  0.7232689100   0.2518100800   0.5000243700
  0.7237761500   0.7499624700   0.0002497600
 -0.0256796500   0.0006273100   0.5000392400
  0.4740351000  -0.0014639500   0.5000199200
  0.7237812100   0.2496901300  -0.0002490800
 -0.0260008500   0.3256613300   0.1517680200
  0.2242991100   0.5760383400   0.1515013100
  0.7240980400   0.5773495400   0.1553215100
 -0.0258813400   0.8261286400   0.1514232300
 -0.0260008200   0.1740938000   0.3479799900
  0.2219473700   0.4243612800   0.3480488100
  0.7259577900   0.4211157400   0.3465437500
 -0.0219337800   0.6746016600   0.3475191800
 -0.0259936600   0.3261378600   0.6520759700
  0.2219120600   0.5763922000   0.6520313500
  0.7260210600   0.5746587000   0.6535138100
 -0.0218894900   0.8271400800   0.6526102400
 -0.0258553900   0.1745695100   0.8484862700
  0.2238640300   0.4242936600   0.8484962500
  0.7240708400   0.4242913300   0.8487139900
 -0.0259745300   0.6739315800   0.8481289000
  0.4739717000   0.8256021800   0.1509367000
  0.7240463400   0.0755535900   0.1512154200
  0.2238932600   0.0757757000   0.1514226000
  0.4742599200   0.3274577100   0.1552974700
  0.4734035500   0.6740153900   0.3466776300
  0.7235438800  -0.0737664000   0.3478890300
  0.2239546400  -0.0757510300   0.3477046700
  0.4732568400   0.1696425200   0.3472038900
  0.4733866900   0.8273908000   0.6534061000
  0.7235749500   0.0783496500   0.6521746000
  0.2239156900   0.0765182700   0.6523658100
  0.4732385900   0.3224304400   0.6528024100
  0.4742435200   0.6722163000   0.8446522900
  0.7241390400  -0.0780056800   0.8446008300
  0.2242627100  -0.0754843200   0.8484157500
  0.4739403800   0.1745656500   0.8490198300
