# Compound: Fe24Li31O16S24. Old comment:
   1.0000000000000000     
     7.8866538400000001   -7.9475566999999998    0.0601846200000000
     7.3433505600000002    7.9467915400000004   -2.8792872599999999
    -0.0478291200000000   -0.1071026000000000   10.5527142699999992
   Fe   Li   O    S 
    24    31    16    24
Direct
  0.2650876499999981  0.6656225500000019  0.6014883900000001
  0.2349345000000014  0.3349955899999983  0.3992980299999971
  0.1153915399999974  0.3224172800000034  0.8029287999999966
  0.3768488300000001  0.5794721500000009  0.8151194100000012
  0.8768721699999986  0.1761311899999995  0.1977287799999985
  0.1231430599999968  0.4194071800000003  0.1858637799999983
  0.0118954499999973  0.9131628100000029  0.6021474300000023
  0.9848292300000026  0.5843078500000018  0.3984716300000031
  0.8717238999999992  0.5662094199999999  0.8028514800000011
  0.1255840000000035  0.8305574399999998  0.8150992599999967
  0.6266224000000022  0.4259657599999969  0.1969111900000016
  0.8733768999999967  0.6700605899999985  0.1859922100000020
  0.7699292599999978  0.1712495800000013  0.6044179299999968
  0.7342426299999971  0.8345004399999993  0.3998443699999967
  0.6255622700000032  0.8244752900000023  0.8023453799999984
  0.8799435600000010  0.0891815499999993  0.8152718400000012
  0.3748738600000010  0.6741677999999993  0.1969193799999971
  0.6250930799999992  0.9215200599999989  0.1853326299999978
  0.5130263100000008  0.4125695099999973  0.6020777100000032
  0.4852838199999994  0.0848669800000010  0.3991227200000012
  0.3738519400000015  0.0762257399999982  0.8023791199999977
  0.6354856100000035  0.3338100400000030  0.8152491199999972
  0.1247969900000001  0.9239226700000032  0.1969991899999997
  0.3752071099999981  0.1713416799999976  0.1852756999999983
  0.4767784399999968  0.4744275999999985  0.0033375000000007
  0.0152285100000000  0.5132258800000002  0.9918157700000023
  0.9706878799999998  0.3738724000000033  0.6122076400000012
  0.0228259699999995  0.1207737900000012  0.3923808500000021
  0.6248774399999988  0.5892388600000018  0.8469066299999994
  0.1241414100000000  0.5667813800000019  0.7703325299999975
  0.1248461699999979  0.1614731000000020  0.1549122500000024
  0.3767633000000004  0.4328660500000012  0.2253395700000027
  0.2238892800000016  0.7246505100000036  0.0027748500000015
  0.7763513599999996  0.7722383799999974  0.9970866199999975
  0.7303257200000033  0.6297317599999985  0.6078069799999994
  0.7727272500000026  0.3710263600000019  0.3913569600000031
  0.8737296099999980  0.8164264899999978  0.7765005500000015
  0.8735729799999987  0.4109755500000034  0.1487065900000033
  0.1257504599999990  0.6811058999999986  0.2222192899999982
  0.9733444800000015  0.9776086999999976  0.0036258000000018
  0.5265909199999967  0.0253541800000008  0.9955691899999977
  0.4773569400000000  0.8792374200000026  0.6070502099999970
  0.5226727000000011  0.6200612700000008  0.3934637699999968
  0.3765725399999980  0.8377061099999992  0.8445358600000006
  0.6229694700000010  0.0650461800000031  0.7675570199999981
  0.6230681500000017  0.6635605299999980  0.1550106299999996
  0.8760768699999986  0.9337784399999975  0.2267341200000033
  0.7310495099999983  0.2304941800000009  0.9987219899999999
  0.2727986100000024  0.2755104000000017  0.9969379599999968
  0.2280122700000007  0.1323208800000018  0.6074223299999986
  0.2714621300000033  0.8702986799999977  0.3930825200000001
  0.1275076200000029  0.0865066100000007  0.8468721899999991
  0.3724540400000009  0.3178253299999980  0.7766444000000021
  0.3738965300000032  0.9128142400000030  0.1554501299999984
  0.6278320899999983  0.1830756900000026  0.2238313900000009
  0.0042697399999980  0.4546541899999994  0.8017173900000003
  0.2501691499999978  0.7022882699999968  0.8085307999999998
  0.0004964800000025  0.0491451199999986  0.1951127299999982
  0.2500246700000019  0.2981728900000036  0.1930120500000001
  0.7506460500000003  0.6987805500000022  0.8071367599999988
  0.9991965800000031  0.9541179599999978  0.8097954999999999
  0.7516197500000033  0.2994655399999999  0.1924934099999973
  0.9988228100000001  0.5462734199999986  0.1908429100000006
  0.5000073400000034  0.9513868000000016  0.8053788300000022
  0.7443958200000012  0.1955378999999979  0.8044743299999979
  0.5003677099999990  0.5494615899999999  0.1948369099999994
  0.7498033399999997  0.7986733299999997  0.1934047900000024
  0.2468587899999974  0.2024548899999985  0.8070798500000009
  0.5017535200000012  0.4517389399999985  0.8096837200000024
  0.2504478800000030  0.7987791799999968  0.1937545999999983
  0.5002761000000007  0.0479921299999972  0.1918744600000011
  0.0023330200000018  0.2486212900000027  0.0031340499999999
  0.2511882200000031  0.5015264500000001  0.0027678599999987
  0.0052388200000024  0.3475777900000026  0.3703605899999971
  0.2444377599999967  0.5869653000000028  0.3667582300000021
  0.9966331700000026  0.1509541499999969  0.6299498699999972
  0.2590771300000014  0.4139869099999984  0.6327118000000027
  0.7479345699999982  0.5031732599999970  0.0028420800000006
  0.0008547699999966  0.7517530300000033  0.0026363899999993
  0.7548668900000024  0.5964689799999974  0.3674500600000030
  0.9952637700000011  0.8355531200000001  0.3662186099999971
  0.7436485099999999  0.4042498900000027  0.6299156600000018
  0.0058638300000027  0.6669681300000008  0.6325039199999978
  0.4998281900000023  0.7506290800000031  0.0000043699999992
  0.7497099699999978  0.9991559999999993  0.0025248800000028
  0.5045149999999978  0.8464807800000003  0.3668187999999972
  0.7449894299999968  0.0883518400000014  0.3690234399999994
  0.4954763400000033  0.6535197299999993  0.6336602200000030
  0.7566164699999973  0.9094769000000014  0.6332417500000034
  0.2506416299999970  0.9997363900000025  0.9999180100000018
  0.4984112599999975  0.2501822300000001  0.0017933199999973
  0.2548176600000005  0.0962541700000017  0.3658713199999966
  0.4964865000000032  0.3371591599999988  0.3660016700000028
  0.2448936500000016  0.9041319099999967  0.6336613599999978
  0.5009130400000004  0.1648738499999993  0.6328330799999975

  0.00000000E+00  0.00000000E+00  0.00000000E+00
  0.00000000E+00  0.00000000E+00  0.00000000E+00
  0.00000000E+00  0.00000000E+00  0.00000000E+00
  0.00000000E+00  0.00000000E+00  0.00000000E+00
  0.00000000E+00  0.00000000E+00  0.00000000E+00
  0.00000000E+00  0.00000000E+00  0.00000000E+00
  0.00000000E+00  0.00000000E+00  0.00000000E+00
  0.00000000E+00  0.00000000E+00  0.00000000E+00
  0.00000000E+00  0.00000000E+00  0.00000000E+00
  0.00000000E+00  0.00000000E+00  0.00000000E+00
  0.00000000E+00  0.00000000E+00  0.00000000E+00
  0.00000000E+00  0.00000000E+00  0.00000000E+00
  0.00000000E+00  0.00000000E+00  0.00000000E+00
  0.00000000E+00  0.00000000E+00  0.00000000E+00
  0.00000000E+00  0.00000000E+00  0.00000000E+00
  0.00000000E+00  0.00000000E+00  0.00000000E+00
  0.00000000E+00  0.00000000E+00  0.00000000E+00
  0.00000000E+00  0.00000000E+00  0.00000000E+00
  0.00000000E+00  0.00000000E+00  0.00000000E+00
  0.00000000E+00  0.00000000E+00  0.00000000E+00
  0.00000000E+00  0.00000000E+00  0.00000000E+00
  0.00000000E+00  0.00000000E+00  0.00000000E+00
  0.00000000E+00  0.00000000E+00  0.00000000E+00
  0.00000000E+00  0.00000000E+00  0.00000000E+00
  0.00000000E+00  0.00000000E+00  0.00000000E+00
  0.00000000E+00  0.00000000E+00  0.00000000E+00
  0.00000000E+00  0.00000000E+00  0.00000000E+00
  0.00000000E+00  0.00000000E+00  0.00000000E+00
  0.00000000E+00  0.00000000E+00  0.00000000E+00
  0.00000000E+00  0.00000000E+00  0.00000000E+00
  0.00000000E+00  0.00000000E+00  0.00000000E+00
  0.00000000E+00  0.00000000E+00  0.00000000E+00
  0.00000000E+00  0.00000000E+00  0.00000000E+00
  0.00000000E+00  0.00000000E+00  0.00000000E+00
  0.00000000E+00  0.00000000E+00  0.00000000E+00
  0.00000000E+00  0.00000000E+00  0.00000000E+00
  0.00000000E+00  0.00000000E+00  0.00000000E+00
  0.00000000E+00  0.00000000E+00  0.00000000E+00
  0.00000000E+00  0.00000000E+00  0.00000000E+00
  0.00000000E+00  0.00000000E+00  0.00000000E+00
  0.00000000E+00  0.00000000E+00  0.00000000E+00
  0.00000000E+00  0.00000000E+00  0.00000000E+00
  0.00000000E+00  0.00000000E+00  0.00000000E+00
  0.00000000E+00  0.00000000E+00  0.00000000E+00
  0.00000000E+00  0.00000000E+00  0.00000000E+00
  0.00000000E+00  0.00000000E+00  0.00000000E+00
  0.00000000E+00  0.00000000E+00  0.00000000E+00
  0.00000000E+00  0.00000000E+00  0.00000000E+00
  0.00000000E+00  0.00000000E+00  0.00000000E+00
  0.00000000E+00  0.00000000E+00  0.00000000E+00
  0.00000000E+00  0.00000000E+00  0.00000000E+00
  0.00000000E+00  0.00000000E+00  0.00000000E+00
  0.00000000E+00  0.00000000E+00  0.00000000E+00
  0.00000000E+00  0.00000000E+00  0.00000000E+00
  0.00000000E+00  0.00000000E+00  0.00000000E+00
  0.00000000E+00  0.00000000E+00  0.00000000E+00
  0.00000000E+00  0.00000000E+00  0.00000000E+00
  0.00000000E+00  0.00000000E+00  0.00000000E+00
  0.00000000E+00  0.00000000E+00  0.00000000E+00
  0.00000000E+00  0.00000000E+00  0.00000000E+00
  0.00000000E+00  0.00000000E+00  0.00000000E+00
  0.00000000E+00  0.00000000E+00  0.00000000E+00
  0.00000000E+00  0.00000000E+00  0.00000000E+00
  0.00000000E+00  0.00000000E+00  0.00000000E+00
  0.00000000E+00  0.00000000E+00  0.00000000E+00
  0.00000000E+00  0.00000000E+00  0.00000000E+00
  0.00000000E+00  0.00000000E+00  0.00000000E+00
  0.00000000E+00  0.00000000E+00  0.00000000E+00
  0.00000000E+00  0.00000000E+00  0.00000000E+00
  0.00000000E+00  0.00000000E+00  0.00000000E+00
  0.00000000E+00  0.00000000E+00  0.00000000E+00
  0.00000000E+00  0.00000000E+00  0.00000000E+00
  0.00000000E+00  0.00000000E+00  0.00000000E+00
  0.00000000E+00  0.00000000E+00  0.00000000E+00
  0.00000000E+00  0.00000000E+00  0.00000000E+00
  0.00000000E+00  0.00000000E+00  0.00000000E+00
  0.00000000E+00  0.00000000E+00  0.00000000E+00
  0.00000000E+00  0.00000000E+00  0.00000000E+00
  0.00000000E+00  0.00000000E+00  0.00000000E+00
  0.00000000E+00  0.00000000E+00  0.00000000E+00
  0.00000000E+00  0.00000000E+00  0.00000000E+00
  0.00000000E+00  0.00000000E+00  0.00000000E+00
  0.00000000E+00  0.00000000E+00  0.00000000E+00
  0.00000000E+00  0.00000000E+00  0.00000000E+00
  0.00000000E+00  0.00000000E+00  0.00000000E+00
  0.00000000E+00  0.00000000E+00  0.00000000E+00
  0.00000000E+00  0.00000000E+00  0.00000000E+00
  0.00000000E+00  0.00000000E+00  0.00000000E+00
  0.00000000E+00  0.00000000E+00  0.00000000E+00
  0.00000000E+00  0.00000000E+00  0.00000000E+00
  0.00000000E+00  0.00000000E+00  0.00000000E+00
  0.00000000E+00  0.00000000E+00  0.00000000E+00
  0.00000000E+00  0.00000000E+00  0.00000000E+00
  0.00000000E+00  0.00000000E+00  0.00000000E+00
  0.00000000E+00  0.00000000E+00  0.00000000E+00
