# Compound: Fe24Li31O16S24. Old comment: Fe24Li31O16S24
  1.0000000000
  7.8866538400  -7.9475567000   0.0601846200
  7.3433505600   7.9467915400  -2.8792872600
 -0.0478291200  -0.1071026000  10.5527142700
Fe    Li    O     S
   24    31    16    24
Direct
  0.2650876500   0.6656225500   0.6014883900
  0.2349345000   0.3349955900   0.3992980300
  0.1153915400   0.3224172800   0.8029288000
  0.3768488300   0.5794721500   0.8151194100
  0.8768721700   0.1761311900   0.1977287800
  0.1231430600   0.4194071800   0.1858637800
  0.0118954500   0.9131628100   0.6021474300
  0.9848292300   0.5843078500   0.3984716300
  0.8717239000   0.5662094200   0.8028514800
  0.1255840000   0.8305574400   0.8150992600
  0.6266224000   0.4259657600   0.1969111900
  0.8733769000   0.6700605900   0.1859922100
  0.7699292600   0.1712495800   0.6044179300
  0.7342426300   0.8345004400   0.3998443700
  0.6255622700   0.8244752900   0.8023453800
  0.8799435600   0.0891815500   0.8152718400
  0.3748738600   0.6741678000   0.1969193800
  0.6250930800   0.9215200600   0.1853326300
  0.5130263100   0.4125695100   0.6020777100
  0.4852838200   0.0848669800   0.3991227200
  0.3738519400   0.0762257400   0.8023791200
  0.6354856100   0.3338100400   0.8152491200
  0.1247969900   0.9239226700   0.1969991900
  0.3752071100   0.1713416800   0.1852757000
  0.4767784400   0.4744276000   0.0033375000
  0.0152285100   0.5132258800   0.9918157700
  0.9706878800   0.3738724000   0.6122076400
  0.0228259700   0.1207737900   0.3923808500
  0.6248774400   0.5892388600   0.8469066300
  0.1241414100   0.5667813800   0.7703325300
  0.1248461700   0.1614731000   0.1549122500
  0.3767633000   0.4328660500   0.2253395700
  0.2238892800   0.7246505100   0.0027748500
  0.7763513600   0.7722383800   0.9970866200
  0.7303257200   0.6297317600   0.6078069800
  0.7727272500   0.3710263600   0.3913569600
  0.8737296100   0.8164264900   0.7765005500
  0.8735729800   0.4109755500   0.1487065900
  0.1257504600   0.6811059000   0.2222192900
  0.9733444800   0.9776087000   0.0036258000
  0.5265909200   0.0253541800   0.9955691900
  0.4773569400   0.8792374200   0.6070502100
  0.5226727000   0.6200612700   0.3934637700
  0.3765725400   0.8377061100   0.8445358600
  0.6229694700   0.0650461800   0.7675570200
  0.6230681500   0.6635605300   0.1550106300
  0.8760768700   0.9337784400   0.2267341200
  0.7310495100   0.2304941800  -0.0012780100
  0.2727986100   0.2755104000   0.9969379600
  0.2280122700   0.1323208800   0.6074223300
  0.2714621300   0.8702986800   0.3930825200
  0.1275076200   0.0865066100   0.8468721900
  0.3724540400   0.3178253300   0.7766444000
  0.3738965300   0.9128142400   0.1554501300
  0.6278320900   0.1830756900   0.2238313900
  0.0042697400   0.4546541900   0.8017173900
  0.2501691500   0.7022882700   0.8085308000
  0.0004964800   0.0491451200   0.1951127300
  0.2500246700   0.2981728900   0.1930120500
  0.7506460500   0.6987805500   0.8071367600
 -0.0008034200   0.9541179600   0.8097955000
  0.7516197500   0.2994655400   0.1924934100
 -0.0011771900   0.5462734200   0.1908429100
  0.5000073400   0.9513868000   0.8053788300
  0.7443958200   0.1955379000   0.8044743300
  0.5003677100   0.5494615900   0.1948369100
  0.7498033400   0.7986733300   0.1934047900
  0.2468587900   0.2024548900   0.8070798500
  0.5017535200   0.4517389400   0.8096837200
  0.2504478800   0.7987791800   0.1937546000
  0.5002761000   0.0479921300   0.1918744600
  0.0023330200   0.2486212900   0.0031340500
  0.2511882200   0.5015264500   0.0027678600
  0.0052388200   0.3475777900   0.3703605900
  0.2444377600   0.5869653000   0.3667582300
  0.9966331700   0.1509541500   0.6299498700
  0.2590771300   0.4139869100   0.6327118000
  0.7479345700   0.5031732600   0.0028420800
  0.0008547700   0.7517530300   0.0026363900
  0.7548668900   0.5964689800   0.3674500600
  0.9952637700   0.8355531200   0.3662186100
  0.7436485100   0.4042498900   0.6299156600
  0.0058638300   0.6669681300   0.6325039200
  0.4998281900   0.7506290800   0.0000043700
  0.7497099700  -0.0008440000   0.0025248800
  0.5045150000   0.8464807800   0.3668188000
  0.7449894300   0.0883518400   0.3690234400
  0.4954763400   0.6535197300   0.6336602200
  0.7566164700   0.9094769000   0.6332417500
  0.2506416300  -0.0002636100  -0.0000819900
  0.4984112600   0.2501822300   0.0017933200
  0.2548176600   0.0962541700   0.3658713200
  0.4964865000   0.3371591600   0.3660016700
  0.2448936500   0.9041319100   0.6336613600
  0.5009130400   0.1648738500   0.6328330800
