# Compound: Li2O2S3Fe4. Old comment: Fe4
   1.00000000000000     
     3.9257565799999998    0.0028295700000000    0.0230777200000000
    -0.0100941600000000    3.9257446200000001    0.0230777200000000
    -2.0200023100000002   -2.0266632000000002   10.1857462200000004
   Li   O    S    Fe
     2     2     3     4
Direct
  0.6067481700000030  0.7262085600000034  0.8318341900000021
  0.2737914399999966  0.3932518299999970  0.1681658099999979
  0.7893302199999965  0.4079644799999969  0.1968608900000035
  0.5920355200000031  0.2106697800000035  0.8031391100000036
  0.0076180399999970  0.6197188900000015  0.6292033499999974
  0.3802811099999985  0.9923819600000030  0.3707966500000026
  0.1905269599999997  0.8094730400000003  0.0000000000000000
  0.8708182199999968  0.5164481999999992  0.3935217000000009
  0.4835518000000008  0.1291817800000032  0.6064782999999991
  0.1128417199999987  0.2319391999999993  0.8454277700000006
  0.7680608000000007  0.8871582800000013  0.1545722299999994
 
  0.00000000E+00  0.00000000E+00  0.00000000E+00
  0.00000000E+00  0.00000000E+00  0.00000000E+00
  0.00000000E+00  0.00000000E+00  0.00000000E+00
  0.00000000E+00  0.00000000E+00  0.00000000E+00
  0.00000000E+00  0.00000000E+00  0.00000000E+00
  0.00000000E+00  0.00000000E+00  0.00000000E+00
  0.00000000E+00  0.00000000E+00  0.00000000E+00
  0.00000000E+00  0.00000000E+00  0.00000000E+00
  0.00000000E+00  0.00000000E+00  0.00000000E+00
  0.00000000E+00  0.00000000E+00  0.00000000E+00
  0.00000000E+00  0.00000000E+00  0.00000000E+00
