AEXX = 0.25
ALGO = all
EDIFF = 2e-05
EDIFFG = -0.03
ENCUT = 520
GGA = pe
HFSCREEN = 0.207
IBRION = 2
ISIF = 3
ISMEAR = 0
ISPIN = 2
KPAR = 24
LASPH = .TRUE.
LHFCALC = .TRUE.
LMAXFOCK = 4
LORBIT = 11
LREAL = .FALSE.
LVHAR = .TRUE.
LWAVE = .TRUE.
MAGMOM = 0.6 0.6 0.6 0.6 0.6 0.6 0.6 0.6 0.6 0.6 0.6 0.6 0.6 0.6 0.6 0.6 5 5 5 5
NCORE = 1
NEDOS = 2000
NELM = 200
NELMIN = 4
NSW = 60
NWRITE = 1
PREC = accurate
PRECFOCK = fast
SIGMA = 0.05
TIME = 0.3
