# Compound: Li2O2S2Fe3. Old comment: LFSO-Li2Fe3S2O2-201022-171823-c39cef HIGH PREC RELAXED
  1.0000000000
  3.8367894900   0.0000000000   0.0000000000
  0.0000000000   5.6633545800   0.0627447000
  0.0000000000  -0.1484157600   5.6617572200
Li    O     S     Fe
    2     2     2     3
Direct
  0.3153988400   0.5000000000   0.0000000000
  0.3153988400   0.0000000000   0.5000000000
  0.3184471700   0.2505532500   0.7494467500
  0.3184471700   0.7494467500   0.2505532500
  0.8183965300   0.2361894300   0.2361894300
  0.8183965300   0.7638105700   0.7638105700
  0.8186145300   0.6781485400   0.3218514600
  0.8186145300   0.3218514600   0.6781485400
  0.3219338700   0.0000000000   0.0000000000
