# Compound: Li16O16S24Fe32. Old comment: Fe4Li2O2S3 supercell_58
  1.0000000000
 11.1122337400   0.0000000000  -0.0002903400
  0.0000000000  11.1174519400   0.0000000000
 -2.7751089800   0.0000000000  10.1987222100
Li    O     S     Fe
   16    16    24    32
Direct
  0.2889496950   0.4693390950   0.1558361600
  0.7889496950   0.4693390950   0.1558361600
  0.2889496950   0.9693390950   0.1558361600
  0.7889496950   0.9693390950   0.1558361600
  0.0464697150   0.2193497600   0.1858677000
  0.5464697150   0.2193497600   0.1858677000
  0.0464697150   0.7193497600   0.1858677000
  0.5464697150   0.7193497600   0.1858677000
  0.4535302850   0.4693497600   0.8141323000
  0.9535302850   0.4693497600   0.8141323000
  0.4535302850   0.9693497600   0.8141323000
  0.9535302850   0.9693497600   0.8141323000
  0.2110503050   0.2193390950   0.8441638400
  0.7110503050   0.2193390950   0.8441638400
  0.2110503050   0.7193390950   0.8441638400
  0.7110503050   0.7193390950   0.8441638400
  0.0765497100   0.0953099550   0.8025059300
  0.5765497100   0.0953099550   0.8025059300
  0.0765497100   0.5953099550   0.8025059300
  0.5765497100   0.5953099550   0.8025059300
  0.3247046650   0.3433817500   0.8025038300
  0.8247046650   0.3433817500   0.8025038300
  0.3247046650   0.8433817500   0.8025038300
  0.8247046650   0.8433817500   0.8025038300
  0.1752953350   0.0933817500   0.1974961700
  0.6752953350   0.0933817500   0.1974961700
  0.1752953350   0.5933817500   0.1974961700
  0.6752953350   0.5933817500   0.1974961700
  0.4234502900   0.3453099550   0.1974940700
  0.9234502900   0.3453099550   0.1974940700
  0.4234502900   0.8453099550   0.1974940700
  0.9234502900   0.8453099550   0.1974940700
  0.2186846300   0.3452339500   0.3710247600
  0.7186846300   0.3452339500   0.3710247600
  0.2186846300   0.8452339500   0.3710247600
  0.7186846300   0.8452339500   0.3710247600
  0.4668166000   0.0934489700   0.3710239900
  0.9668166000   0.0934489700   0.3710239900
  0.4668166000   0.5934489700   0.3710239900
  0.9668166000   0.5934489700   0.3710239900
  0.0331834000   0.3434489700   0.6289760100
  0.5331834000   0.3434489700   0.6289760100
  0.0331834000   0.8434489700   0.6289760100
  0.5331834000   0.8434489700   0.6289760100
  0.2813153700   0.0952339500   0.6289752400
  0.7813153700   0.0952339500   0.6289752400
  0.2813153700   0.5952339500   0.6289752400
  0.7813153700   0.5952339500   0.6289752400
  0.1243927900   0.3443430600   0.0000041200
  0.6243927900   0.3443430600   0.0000041200
  0.1243927900   0.8443430600   0.0000041200
  0.6243927900   0.8443430600   0.0000041200
  0.3756072100   0.0943430600   0.9999958800
  0.8756072100   0.0943430600   0.9999958800
  0.3756072100   0.5943430600   0.9999958800
  0.8756072100   0.5943430600   0.9999958800
  0.0382442550   0.1063479900   0.6063230600
  0.5382442550   0.1063479900   0.6063230600
  0.0382442550   0.6063479900   0.6063230600
  0.5382442550   0.6063479900   0.6063230600
  0.2649271250   0.3323265100   0.6063276300
  0.7649271250   0.3323265100   0.6063276300
  0.2649271250   0.8323265100   0.6063276300
  0.7649271250   0.8323265100   0.6063276300
  0.2350728750   0.0823265100   0.3936723700
  0.7350728750   0.0823265100   0.3936723700
  0.2350728750   0.5823265100   0.3936723700
  0.7350728750   0.5823265100   0.3936723700
  0.4617557450   0.3563479900   0.3936769400
  0.9617557450   0.3563479900   0.3936769400
  0.4617557450   0.8563479900   0.3936769400
  0.9617557450   0.8563479900   0.3936769400
  0.0384839800   0.4684645533   0.1539733100
  0.5384839800   0.4693640400   0.1539733100
  0.0384839800   0.9693640400   0.1539733100
  0.5384839800   0.9693640400   0.1539733100
  0.2886165750   0.2193569000   0.1544752500
  0.7886165750   0.2193569000   0.1544752500
  0.2886165750   0.7193569000   0.1544752500
  0.7886165750   0.7193569000   0.1544752500
  0.2113834250   0.4693569000   0.8455247500
  0.7113834250   0.4693569000   0.8455247500
  0.2113834250   0.9693569000   0.8455247500
  0.7113834250   0.9693569000   0.8455247500
  0.4615160200   0.2193640400   0.8460266900
  0.9615160200   0.2193640400   0.8460266900
  0.4615160200   0.7193640400   0.8460266900
  0.9615160200   0.7193640400   0.8460266900
