# Compound: Fe32Li31O16S32. Old comment:
   1.0000000000000000     
     7.6911861600000000   -7.6885056399999998    0.0000000100000000
     7.6884112800000004    7.6911136200000003   -0.0126780500000000
    -3.8335882400000001   -3.8349345399999999   12.8627506399999998
   Fe   Li   O    S 
    32    31    16    32
Direct
  0.9742517299999989  0.0791469899999981  0.1586101500000012
  0.2244381900000008  0.3303471099999982  0.1596624100000028
  0.7239257900000027  0.3287607099999974  0.1583494799999983
  0.9753755200000001  0.5795470899999984  0.1594449199999985
  0.9748607900000010  0.4208358400000023  0.3413546600000004
  0.2344743800000018  0.6814470699999973  0.3469081699999990
  0.7257217599999990  0.6706942200000015  0.3413219800000036
  0.9728874199999993  0.9194361300000011  0.3415407299999984
  0.9728735699999973  0.0779094800000024  0.6584677099999965
  0.2256329300000033  0.3306171899999981  0.6586398900000034
  0.7236998200000002  0.3285570899999968  0.6586290400000010
  0.9748656200000028  0.5795198400000032  0.6586415499999987
  0.9742627799999966  0.4205109199999981  0.8413838900000030
  0.2244291200000035  0.6706699400000034  0.8403346500000026
  0.7239360800000014  0.6703895799999984  0.8416474799999989
  0.9753842699999993  0.9200658900000036  0.8405535899999990
  0.4753022200000032  0.5775505300000034  0.1588269299999965
  0.7232668199999992  0.8300955899999991  0.1597518600000001
  0.2233168300000017  0.8295910800000001  0.1580635600000022
  0.4742504399999987  0.0787573100000003  0.1591303800000006
  0.4659048500000011  0.9131081199999969  0.3468626100000023
  0.7237057899999968  0.1699260299999992  0.3413716900000026
  0.2256111700000005  0.1719380799999968  0.3413517500000012
  0.4738478499999985  0.4186841300000026  0.3411973500000016
  0.4738314599999995  0.5774862800000022  0.6588089199999985
  0.7257390199999989  0.8294169400000015  0.6586739999999978
  0.2345046499999981  0.8345289600000001  0.6531046400000022
  0.4659101199999967  0.0662552100000013  0.6531407599999994
  0.4753392100000013  0.9186930199999992  0.8411779199999998
  0.7232591200000016  0.1703384600000035  0.8402508699999984
  0.2233092999999968  0.1715060900000012  0.8419269199999988
  0.4742723999999967  0.4196097100000031  0.8408725600000011
  0.0809005300000010  0.1437950600000022  0.0004900500000034
  0.8668848800000006  0.8572681799999984  0.0000351400000014
  0.8668880099999967  0.3572318000000010  0.9999623599999978
  0.0809026499999987  0.6433006199999980  0.9995123200000009
  0.1178892900000008  0.3932043499999978  0.4999967700000028
  0.3354659700000013  0.6155668099999971  0.4999991899999969
  0.8300897199999966  0.6063335600000030  0.4999961899999974
  0.6177247500000007  0.3941072399999968  0.5000045999999969
  0.0798852699999983  0.1443898400000023  0.5000088299999987
  0.8659998899999977  0.8575072300000031  0.4999997999999977
  0.8675620200000012  0.3565035800000018  0.5000028400000005
  0.0785277600000001  0.6445778200000021  0.4999937500000016
  0.1174247300000033  0.3935820299999975  0.0007872400000011
  0.3305212400000030  0.6064504300000024  0.0004985099999999
  0.8314324400000004  0.6075904200000011  0.0006508299999979
  0.6177476599999991  0.3935096200000032  0.9999856199999968
  0.5805593400000006  0.6434306900000024  0.0007492000000013
  0.3678786799999969  0.3556923299999966  0.9992708600000029
  0.3678783399999972  0.8564189000000013  0.0007140900000024
  0.5805618699999968  0.1426688000000027  0.9992502799999983
  0.6082034000000007  0.8885630600000027  0.4999958699999993
  0.8309105000000017  0.1064340799999997  0.4999914099999998
  0.3271562700000032  0.0993607899999986  0.5000039299999983
  0.1250024200000013  0.8970416399999976  0.5000119400000003
  0.3667234799999974  0.3579773599999996  0.4999980899999983
  0.5799140900000026  0.6440367900000012  0.5000070500000007
  0.5793216400000034  0.1457259000000022  0.4999978499999997
  0.6177507399999982  0.8935260299999968  0.0000302600000026
  0.8314336700000027  0.1069343599999968  0.9993475099999998
  0.3305199400000021  0.1059375500000002  0.9994853600000013
  0.1174219999999977  0.8927937799999981  0.9992175699999990
  0.2248401700000002  0.2484524400000012  0.4999957799999990
  0.4738187100000033  0.4996199599999969  0.9998998900000018
  0.9746303100000020  0.5003065300000031  0.0005514799999986
  0.2177193500000030  0.7472441900000035  0.4999950899999988
  0.2244178500000018  0.2503562899999991  0.0004253600000013
  0.4743565899999993  0.5014749999999992  0.4999984199999972
  0.9740960399999992  0.4996852700000005  0.4999972000000028
  0.2244167599999969  0.7499331599999977  0.9995762799999994
  0.7224630099999985  0.7496607100000006  0.4999960399999992
  0.9746304900000027  0.9997571099999973  0.9994535499999984
  0.4738208200000003  0.9997203900000002  0.0001060600000002
  0.7242471499999965  0.2500904899999981  0.4999968400000014
  0.7237231499999979  0.7502391399999979  0.0006612299999986
  0.9757726699999978  0.9994160099999974  0.5000023600000034
  0.4767389800000004  0.0065809800000025  0.5000015199999979
  0.7237212599999978  0.2495816300000016  0.9993422800000005
  0.9740843200000029  0.3255305400000026  0.1517605599999996
  0.2239271199999990  0.5781234600000005  0.1553915399999966
  0.7235720700000030  0.5755826400000004  0.1516637100000011
  0.9743786100000023  0.8259662299999988  0.1519022299999975
  0.9741776700000031  0.1739298000000034  0.3480077099999974
  0.2246477799999980  0.4219403999999969  0.3480695800000007
  0.7243639799999997  0.4235443199999978  0.3476361499999996
  0.9693464300000016  0.6726102200000028  0.3475778299999988
  0.9741794600000020  0.3259200299999989  0.6519924400000008
  0.2246475399999994  0.5738810100000009  0.6519294100000010
  0.7243654999999976  0.5759023199999973  0.6523596299999994
  0.9693400800000020  0.8250272300000034  0.6524198700000028
  0.9743741699999973  0.1740662999999998  0.8480992400000034
  0.2242309499999990  0.4241922900000006  0.8485633199999967
  0.7245443600000030  0.4240411800000032  0.8483127599999989
  0.9740856000000022  0.6737733699999993  0.8482386800000015
  0.4739037699999997  0.8277225400000034  0.1553297999999970
  0.7245466700000023  0.0757295399999975  0.1516865199999984
  0.2242299199999991  0.0756146200000032  0.1514313699999974
  0.4743119199999981  0.3259120499999995  0.1511337700000013
  0.4749036500000017  0.6726414600000012  0.3469060099999979
  0.7263436400000032  0.9235334700000024  0.3482088399999981
  0.2219910999999968  0.9253941899999987  0.3463750499999989
  0.4752723599999982  0.1782852400000010  0.3473047299999976
  0.4749102500000006  0.8257276699999991  0.6530966799999973
  0.7263437000000010  0.0753226799999993  0.6517928800000021
  0.2219943500000028  0.0790188799999996  0.6536247499999988
  0.4752764699999972  0.3309908299999975  0.6526944499999985
  0.4743111000000013  0.6747824500000021  0.8488672599999987
  0.7235718800000015  0.9239223599999988  0.8483362200000002
  0.2239264999999975  0.9227224899999982  0.8446071999999987
  0.4739082199999984  0.1723906100000008  0.8446703799999966

  0.00000000E+00  0.00000000E+00  0.00000000E+00
  0.00000000E+00  0.00000000E+00  0.00000000E+00
  0.00000000E+00  0.00000000E+00  0.00000000E+00
  0.00000000E+00  0.00000000E+00  0.00000000E+00
  0.00000000E+00  0.00000000E+00  0.00000000E+00
  0.00000000E+00  0.00000000E+00  0.00000000E+00
  0.00000000E+00  0.00000000E+00  0.00000000E+00
  0.00000000E+00  0.00000000E+00  0.00000000E+00
  0.00000000E+00  0.00000000E+00  0.00000000E+00
  0.00000000E+00  0.00000000E+00  0.00000000E+00
  0.00000000E+00  0.00000000E+00  0.00000000E+00
  0.00000000E+00  0.00000000E+00  0.00000000E+00
  0.00000000E+00  0.00000000E+00  0.00000000E+00
  0.00000000E+00  0.00000000E+00  0.00000000E+00
  0.00000000E+00  0.00000000E+00  0.00000000E+00
  0.00000000E+00  0.00000000E+00  0.00000000E+00
  0.00000000E+00  0.00000000E+00  0.00000000E+00
  0.00000000E+00  0.00000000E+00  0.00000000E+00
  0.00000000E+00  0.00000000E+00  0.00000000E+00
  0.00000000E+00  0.00000000E+00  0.00000000E+00
  0.00000000E+00  0.00000000E+00  0.00000000E+00
  0.00000000E+00  0.00000000E+00  0.00000000E+00
  0.00000000E+00  0.00000000E+00  0.00000000E+00
  0.00000000E+00  0.00000000E+00  0.00000000E+00
  0.00000000E+00  0.00000000E+00  0.00000000E+00
  0.00000000E+00  0.00000000E+00  0.00000000E+00
  0.00000000E+00  0.00000000E+00  0.00000000E+00
  0.00000000E+00  0.00000000E+00  0.00000000E+00
  0.00000000E+00  0.00000000E+00  0.00000000E+00
  0.00000000E+00  0.00000000E+00  0.00000000E+00
  0.00000000E+00  0.00000000E+00  0.00000000E+00
  0.00000000E+00  0.00000000E+00  0.00000000E+00
  0.00000000E+00  0.00000000E+00  0.00000000E+00
  0.00000000E+00  0.00000000E+00  0.00000000E+00
  0.00000000E+00  0.00000000E+00  0.00000000E+00
  0.00000000E+00  0.00000000E+00  0.00000000E+00
  0.00000000E+00  0.00000000E+00  0.00000000E+00
  0.00000000E+00  0.00000000E+00  0.00000000E+00
  0.00000000E+00  0.00000000E+00  0.00000000E+00
  0.00000000E+00  0.00000000E+00  0.00000000E+00
  0.00000000E+00  0.00000000E+00  0.00000000E+00
  0.00000000E+00  0.00000000E+00  0.00000000E+00
  0.00000000E+00  0.00000000E+00  0.00000000E+00
  0.00000000E+00  0.00000000E+00  0.00000000E+00
  0.00000000E+00  0.00000000E+00  0.00000000E+00
  0.00000000E+00  0.00000000E+00  0.00000000E+00
  0.00000000E+00  0.00000000E+00  0.00000000E+00
  0.00000000E+00  0.00000000E+00  0.00000000E+00
  0.00000000E+00  0.00000000E+00  0.00000000E+00
  0.00000000E+00  0.00000000E+00  0.00000000E+00
  0.00000000E+00  0.00000000E+00  0.00000000E+00
  0.00000000E+00  0.00000000E+00  0.00000000E+00
  0.00000000E+00  0.00000000E+00  0.00000000E+00
  0.00000000E+00  0.00000000E+00  0.00000000E+00
  0.00000000E+00  0.00000000E+00  0.00000000E+00
  0.00000000E+00  0.00000000E+00  0.00000000E+00
  0.00000000E+00  0.00000000E+00  0.00000000E+00
  0.00000000E+00  0.00000000E+00  0.00000000E+00
  0.00000000E+00  0.00000000E+00  0.00000000E+00
  0.00000000E+00  0.00000000E+00  0.00000000E+00
  0.00000000E+00  0.00000000E+00  0.00000000E+00
  0.00000000E+00  0.00000000E+00  0.00000000E+00
  0.00000000E+00  0.00000000E+00  0.00000000E+00
  0.00000000E+00  0.00000000E+00  0.00000000E+00
  0.00000000E+00  0.00000000E+00  0.00000000E+00
  0.00000000E+00  0.00000000E+00  0.00000000E+00
  0.00000000E+00  0.00000000E+00  0.00000000E+00
  0.00000000E+00  0.00000000E+00  0.00000000E+00
  0.00000000E+00  0.00000000E+00  0.00000000E+00
  0.00000000E+00  0.00000000E+00  0.00000000E+00
  0.00000000E+00  0.00000000E+00  0.00000000E+00
  0.00000000E+00  0.00000000E+00  0.00000000E+00
  0.00000000E+00  0.00000000E+00  0.00000000E+00
  0.00000000E+00  0.00000000E+00  0.00000000E+00
  0.00000000E+00  0.00000000E+00  0.00000000E+00
  0.00000000E+00  0.00000000E+00  0.00000000E+00
  0.00000000E+00  0.00000000E+00  0.00000000E+00
  0.00000000E+00  0.00000000E+00  0.00000000E+00
  0.00000000E+00  0.00000000E+00  0.00000000E+00
  0.00000000E+00  0.00000000E+00  0.00000000E+00
  0.00000000E+00  0.00000000E+00  0.00000000E+00
  0.00000000E+00  0.00000000E+00  0.00000000E+00
  0.00000000E+00  0.00000000E+00  0.00000000E+00
  0.00000000E+00  0.00000000E+00  0.00000000E+00
  0.00000000E+00  0.00000000E+00  0.00000000E+00
  0.00000000E+00  0.00000000E+00  0.00000000E+00
  0.00000000E+00  0.00000000E+00  0.00000000E+00
  0.00000000E+00  0.00000000E+00  0.00000000E+00
  0.00000000E+00  0.00000000E+00  0.00000000E+00
  0.00000000E+00  0.00000000E+00  0.00000000E+00
  0.00000000E+00  0.00000000E+00  0.00000000E+00
  0.00000000E+00  0.00000000E+00  0.00000000E+00
  0.00000000E+00  0.00000000E+00  0.00000000E+00
  0.00000000E+00  0.00000000E+00  0.00000000E+00
  0.00000000E+00  0.00000000E+00  0.00000000E+00
  0.00000000E+00  0.00000000E+00  0.00000000E+00
  0.00000000E+00  0.00000000E+00  0.00000000E+00
  0.00000000E+00  0.00000000E+00  0.00000000E+00
  0.00000000E+00  0.00000000E+00  0.00000000E+00
  0.00000000E+00  0.00000000E+00  0.00000000E+00
  0.00000000E+00  0.00000000E+00  0.00000000E+00
  0.00000000E+00  0.00000000E+00  0.00000000E+00
  0.00000000E+00  0.00000000E+00  0.00000000E+00
  0.00000000E+00  0.00000000E+00  0.00000000E+00
  0.00000000E+00  0.00000000E+00  0.00000000E+00
  0.00000000E+00  0.00000000E+00  0.00000000E+00
  0.00000000E+00  0.00000000E+00  0.00000000E+00
  0.00000000E+00  0.00000000E+00  0.00000000E+00
  0.00000000E+00  0.00000000E+00  0.00000000E+00
  0.00000000E+00  0.00000000E+00  0.00000000E+00
  0.00000000E+00  0.00000000E+00  0.00000000E+00
