# Compound: Fe32Li31O16S32. Old comment: Fe32Li31O16S32
  1.0000000000
  7.6911861600  -7.6885056400   0.0000000100
  7.6884112800   7.6911136200  -0.0126780500
 -3.8335882400  -3.8349345400  12.8627506400
Fe    Li    O     S
   32    31    16    32
Direct
  0.9742517300   0.0791469900   0.1586101500
  0.2244381900   0.3303471100   0.1596624100
  0.7239257900   0.3287607100   0.1583494800
  0.9753755200   0.5795470900   0.1594449200
  0.9748607900   0.4208358400   0.3413546600
  0.2344743800   0.6814470700   0.3469081700
  0.7257217600   0.6706942200   0.3413219800
  0.9728874200   0.9194361300   0.3415407300
  0.9728735700   0.0779094800   0.6584677100
  0.2256329300   0.3306171900   0.6586398900
  0.7236998200   0.3285570900   0.6586290400
  0.9748656200   0.5795198400   0.6586415500
  0.9742627800   0.4205109200   0.8413838900
  0.2244291200   0.6706699400   0.8403346500
  0.7239360800   0.6703895800   0.8416474800
  0.9753842700   0.9200658900   0.8405535900
  0.4753022200   0.5775505300   0.1588269300
  0.7232668200   0.8300955900   0.1597518600
  0.2233168300   0.8295910800   0.1580635600
  0.4742504400   0.0787573100   0.1591303800
  0.4659048500   0.9131081200   0.3468626100
  0.7237057900   0.1699260300   0.3413716900
  0.2256111700   0.1719380800   0.3413517500
  0.4738478500   0.4186841300   0.3411973500
  0.4738314600   0.5774862800   0.6588089200
  0.7257390200   0.8294169400   0.6586740000
  0.2345046500   0.8345289600   0.6531046400
  0.4659101200   0.0662552100   0.6531407600
  0.4753392100   0.9186930200   0.8411779200
  0.7232591200   0.1703384600   0.8402508700
  0.2233093000   0.1715060900   0.8419269200
  0.4742724000   0.4196097100   0.8408725600
  0.0809005300   0.1437950600   0.0004900500
  0.8668848800   0.8572681800   0.0000351400
  0.8668880100   0.3572318000  -0.0000376400
  0.0809026500   0.6433006200  -0.0004876800
  0.1178892900   0.3932043500   0.4999967700
  0.3354659700   0.6155668100   0.4999991900
  0.8300897200   0.6063335600   0.4999961900
  0.6177247500   0.3941072400   0.5000046000
  0.0798852700   0.1443898400   0.5000088300
  0.8659998900   0.8575072300   0.4999998000
  0.8675620200   0.3565035800   0.5000028400
  0.0785277600   0.6445778200   0.4999937500
  0.1174247300   0.3935820300   0.0007872400
  0.3305212400   0.6064504300   0.0004985100
  0.8314324400   0.6075904200   0.0006508300
  0.6177476600   0.3935096200  -0.0000143800
  0.5805593400   0.6434306900   0.0007492000
  0.3678786800   0.3556923300  -0.0007291400
  0.3678783400   0.8564189000   0.0007140900
  0.5805618700   0.1426688000  -0.0007497200
  0.6082034000   0.8885630600   0.4999958700
  0.8309105000   0.1064340800   0.4999914100
  0.3271562700   0.0993607900   0.5000039300
  0.1250024200   0.8970416400   0.5000119400
  0.3667234800   0.3579773600   0.4999980900
  0.5799140900   0.6440367900   0.5000070500
  0.5793216400   0.1457259000   0.4999978500
  0.6177507400   0.8935260300   0.0000302600
  0.8314336700   0.1069343600  -0.0006524900
  0.3305199400   0.1059375500  -0.0005146400
  0.1174220000   0.8927937800  -0.0007824300
  0.2248401700   0.2484524400   0.4999957800
  0.4738187100   0.4996199600  -0.0001001100
  0.9746303100   0.5003065300   0.0005514800
  0.2177193500   0.7472441900   0.4999950900
  0.2244178500   0.2503562900   0.0004253600
  0.4743565900   0.5014750000   0.4999984200
  0.9740960400   0.4996852700   0.4999972000
  0.2244167600   0.7499331600  -0.0004237200
  0.7224630100   0.7496607100   0.4999960400
  0.9746304900  -0.0002428900  -0.0005464500
  0.4738208200  -0.0002796100   0.0001060600
  0.7242471500   0.2500904900   0.4999968400
  0.7237231500   0.7502391400   0.0006612300
  0.9757726700  -0.0005839900   0.5000023600
  0.4767389800   0.0065809800   0.5000015200
  0.7237212600   0.2495816300  -0.0006577200
  0.9740843200   0.3255305400   0.1517605600
  0.2239271200   0.5781234600   0.1553915400
  0.7235720700   0.5755826400   0.1516637100
  0.9743786100   0.8259662300   0.1519022300
  0.9741776700   0.1739298000   0.3480077100
  0.2246477800   0.4219404000   0.3480695800
  0.7243639800   0.4235443200   0.3476361500
  0.9693464300   0.6726102200   0.3475778300
  0.9741794600   0.3259200300   0.6519924400
  0.2246475400   0.5738810100   0.6519294100
  0.7243655000   0.5759023200   0.6523596300
  0.9693400800   0.8250272300   0.6524198700
  0.9743741700   0.1740663000   0.8480992400
  0.2242309500   0.4241922900   0.8485633200
  0.7245443600   0.4240411800   0.8483127600
  0.9740856000   0.6737733700   0.8482386800
  0.4739037700   0.8277225400   0.1553298000
  0.7245466700   0.0757295400   0.1516865200
  0.2242299200   0.0756146200   0.1514313700
  0.4743119200   0.3259120500   0.1511337700
  0.4749036500   0.6726414600   0.3469060100
  0.7263436400   0.9235334700   0.3482088400
  0.2219911000   0.9253941900   0.3463750500
  0.4752723600   0.1782852400   0.3473047300
  0.4749102500   0.8257276700   0.6530966800
  0.7263437000   0.0753226800   0.6517928800
  0.2219943500   0.0790188800   0.6536247500
  0.4752764700   0.3309908300   0.6526944500
  0.4743111000   0.6747824500   0.8488672600
  0.7235718800   0.9239223600   0.8483362200
  0.2239265000   0.9227224900   0.8446072000
  0.4739082200   0.1723906100   0.8446703800
