# Compound: Li4OS4Fe3. Old comment: Fe3L
   1.00000000000000     
     9.2703326900000000   -0.1271289600000000   -0.0528753200000000
     4.7873941899999997    5.1462692700000003   -0.0425726500000000
     4.7873941899999997    3.5981693899999998    3.6795484599999999
   Li   O    S    Fe
     4     1     4     3
Direct
  0.8607968999999969  0.2310027799999972  0.3701168600000031
  0.1392031000000031  0.6298831399999969  0.7689972200000028
  0.5828379000000012  0.8016175300000015  0.9403827000000007
  0.4171620999999988  0.0596172999999993  0.1983824699999985
  0.0000000000000000  0.4309388499999969  0.5690611500000031
  0.7844543599999980  0.8640448800000016  0.0029384999999991
  0.2155456400000020  0.9970615000000009  0.1359551199999984
  0.6568488500000029  0.1829615300000000  0.3216673200000031
  0.3431511499999971  0.6783326799999969  0.8170384700000000
  0.7073248199999966  0.5263419699999972  0.6644936000000001
  0.2926751800000034  0.3355063999999999  0.4736580300000028
  0.0000000000000000  0.9309044399999991  0.0690955600000009
 
  0.00000000E+00  0.00000000E+00  0.00000000E+00
  0.00000000E+00  0.00000000E+00  0.00000000E+00
  0.00000000E+00  0.00000000E+00  0.00000000E+00
  0.00000000E+00  0.00000000E+00  0.00000000E+00
  0.00000000E+00  0.00000000E+00  0.00000000E+00
  0.00000000E+00  0.00000000E+00  0.00000000E+00
  0.00000000E+00  0.00000000E+00  0.00000000E+00
  0.00000000E+00  0.00000000E+00  0.00000000E+00
  0.00000000E+00  0.00000000E+00  0.00000000E+00
  0.00000000E+00  0.00000000E+00  0.00000000E+00
  0.00000000E+00  0.00000000E+00  0.00000000E+00
  0.00000000E+00  0.00000000E+00  0.00000000E+00
