# Compound: Fe24Li31O16S24. Old comment:
   1.0000000000000000     
     7.8866538400000001   -7.9475566999999998    0.0601846200000000
     7.3433505600000002    7.9467915400000004   -2.8792872599999999
    -0.0478291200000000   -0.1071026000000000   10.5527142699999992
   Fe   Li   O    S 
    24    31    16    24
Direct
  0.2619430498294445  0.6650380977181244  0.6021443551719488
  0.2284310844697687  0.3324942728198591  0.3989138544900027
  0.1187805371492289  0.3245102601478782  0.7899422398821841
  0.3733060535514038  0.5799108386102749  0.8162449646138420
  0.8736884679013213  0.1764177521109320  0.1972752960991385
  0.1241895854366264  0.4226092752544903  0.1848270576767712
  0.0182607670968063  0.9210529794913200  0.6025441725635241
  0.9902937645437757  0.6001075881851264  0.3951202893119841
  0.8671615196661876  0.5784424870864532  0.8064996284929606
  0.1229573607741398  0.8294501844353876  0.8170711449556929
  0.6274212916133861  0.4284231111420490  0.1989992518603693
  0.8713975255222162  0.6688962584239208  0.1799675736619284
  0.7632145447341785  0.1627660293418777  0.6029626461810627
  0.7322028635127024  0.8237942083314802  0.4003217267760348
  0.6249523525701103  0.8178578739943895  0.7896192314582529
  0.8735933478517867  0.0781159218320572  0.8159010402506672
  0.3765849979665051  0.6767294543407264  0.1994576783803346
  0.6227680401782328  0.9217778320568720  0.1901247501076998
  0.5159297197933534  0.4240557298725091  0.6027362671042619
  0.4887492308865783  0.0923519194051565  0.3992148981572246
  0.3724748966590722  0.0756703054332368  0.8054154870935899
  0.6234192982188334  0.3286357562121643  0.8131446119740828
  0.1247403113902052  0.9273663333993660  0.2003224177878716
  0.3723926978542761  0.1705698185728146  0.1834802253248888
  0.4754154488082913  0.4760944000055760  0.0051452774234254
  0.0249366981207319  0.5210059421166837  0.9941587919151645
  0.9501229256074312  0.4331149210101115  0.5855301929901418
  0.0246791022207496  0.1327866641200072  0.3960102837049426
  0.8745702585049121  0.3372654271356686  0.8344102304109520
  0.1206196697731916  0.5667923208113099  0.7727903094573774
  0.1216058436465598  0.1639671644990283  0.1532521305359198
  0.3773123261031677  0.4359279523130882  0.2338345914273025
  0.2285576707415155  0.7300161366532951  0.0045574384739544
  0.7778153729731359  0.7881243826206558  1.0008188959155251
  0.7363262625361874  0.3431585078012088  0.3951523874413628
  0.6257372930290587  0.5897315400876806  0.8429179346093900
  0.8677859171324220  0.8063251283610186  0.7529304872705710
  0.8741916379941023  0.4182592716489572  0.1732928154954865
  0.1268489203261841  0.6834948192701396  0.2148235900249686
  0.9713053311098027  0.9752649400044472  0.0054534861137978
  0.5224571680504323  0.0136100090337960  0.9942236014576584
  0.4779381886758763  0.8884360643957584  0.6075926419397453
  0.5341739921378074  0.6253439322172459  0.3985647009314784
  0.3760091756779914  0.8340720481044915  0.8391824598881985
  0.6218000083787429  0.0684915577652709  0.7819174089957128
  0.6235429732628998  0.6631637406376851  0.1529088041874745
  0.8757095717337032  0.9378477735831205  0.2383107694918694
  0.7332685647582898  0.2379661187611519  0.0031946883355037
  0.2727036180259857  0.2786284663976365  0.9947020312636867
  0.2284451304460025  0.1259543665982156  0.6077399659377718
  0.2690338966634291  0.8664378964051572  0.3938057636470543
  0.1231028996088020  0.0899544722815536  0.8458762647618742
  0.3712612783868695  0.3164415579756769  0.7696924521350567
  0.3727470964106538  0.9139599463198352  0.1573674663182067
  0.6238322768637086  0.1767127922512575  0.2023700198249070
  0.9956604243897639  0.4559522845888186  0.8057870022919725
  0.2468171721793579  0.7024495976110361  0.8108073018396162
 -0.0009604525532766  0.0511023520573611  0.1980400520100517
  0.2500554754670040  0.2999076905868736  0.1928510043121709
  0.7503894292874633  0.7086943821826951  0.8204791369337278
  0.9961843585285199  0.9491746734194743  0.8081012494273463
  0.7481470909118522  0.3007093591145117  0.1950009517912616
  0.0011732579797824  0.5500367468471860  0.1873734441761762
  0.4992133917131722  0.9488348904704195  0.8058284770078702
  0.7488365503519171  0.2018339733908201  0.8096060919993079
  0.5011499704900917  0.5498623646906231  0.1979562423795612
  0.7500934537129645  0.8010836963321616  0.1937336778395610
  0.2468751310109350  0.2031329641720259  0.8052617642543409
  0.4975667446144882  0.4524361181096409  0.8088537050777280
  0.2509179402686543  0.8020257147020072  0.1957379329724984
  0.4973476316289357  0.0470526748203176  0.1905595995224852
 -0.0025114416166668  0.2506681825040268  1.0002142213855401
  0.2507387571059101  0.5035623899770740  0.0027891847119582
  0.0044072434698335  0.3491459349753985  0.3616023504280513
  0.2418575641831929  0.5908518097222946  0.3660970235007877
  0.9931191342015537  0.1507664362330676  0.6327357080791327
  0.2540080611653197  0.4150642149932608  0.6318465969726056
  0.7460894867226429  0.4971331729222615  0.0006176869490083
  0.0020942084105626  0.7533752247220725  0.0062123567210216
  0.7600025797288171  0.5966416867256863  0.3620696124461102
  0.9966213596031701  0.8348465443450627  0.3690398481924552
  0.7405746005157102  0.4007692760801679  0.6368034627640398
  0.0092811913567024  0.6615366246932490  0.6306650494349141
  0.4958381039479478  0.7499444288675103  0.0035598348269164
  0.7491445861418207  0.0093666223938969  0.0076744113530379
  0.5051048149402251  0.8475811419735548  0.3683816835768452
  0.7400559860689570  0.0943625893430988  0.3674624034348586
  0.4874911620776915  0.6550188030653187  0.6346895086919204
  0.7510070233113610  0.9182244657638023  0.6321947514501607
  0.2484288233215678  0.0010764096333794  0.9998515235726118
  0.4988936500904714  0.2479801346389369  0.0005764054945332
  0.2546911082484485  0.0985895808981245  0.3681865649553480
  0.4986120386680326  0.3347446227112582  0.3680213588700713
  0.2439927013299329  0.9043510619577110  0.6353983219126522
  0.5023918292861974  0.1601194047384606  0.6353791181823705

             NaN             NaN             NaN
             NaN             NaN             NaN
             NaN             NaN             NaN
             NaN             NaN             NaN
             NaN             NaN             NaN
             NaN             NaN             NaN
             NaN             NaN             NaN
             NaN             NaN             NaN
             NaN             NaN             NaN
             NaN             NaN             NaN
             NaN             NaN             NaN
             NaN             NaN             NaN
             NaN             NaN             NaN
             NaN             NaN             NaN
             NaN             NaN             NaN
             NaN             NaN             NaN
             NaN             NaN             NaN
             NaN             NaN             NaN
             NaN             NaN             NaN
             NaN             NaN             NaN
             NaN             NaN             NaN
             NaN             NaN             NaN
             NaN             NaN             NaN
             NaN             NaN             NaN
             NaN             NaN             NaN
             NaN             NaN             NaN
             NaN             NaN             NaN
             NaN             NaN             NaN
             NaN             NaN             NaN
             NaN             NaN             NaN
             NaN             NaN             NaN
             NaN             NaN             NaN
             NaN             NaN             NaN
             NaN             NaN             NaN
             NaN             NaN             NaN
             NaN             NaN             NaN
             NaN             NaN             NaN
             NaN             NaN             NaN
             NaN             NaN             NaN
             NaN             NaN             NaN
             NaN             NaN             NaN
             NaN             NaN             NaN
             NaN             NaN             NaN
             NaN             NaN             NaN
             NaN             NaN             NaN
             NaN             NaN             NaN
             NaN             NaN             NaN
             NaN             NaN             NaN
             NaN             NaN             NaN
             NaN             NaN             NaN
             NaN             NaN             NaN
             NaN             NaN             NaN
             NaN             NaN             NaN
             NaN             NaN             NaN
             NaN             NaN             NaN
             NaN             NaN             NaN
             NaN             NaN             NaN
             NaN             NaN             NaN
             NaN             NaN             NaN
             NaN             NaN             NaN
             NaN             NaN             NaN
             NaN             NaN             NaN
             NaN             NaN             NaN
             NaN             NaN             NaN
             NaN             NaN             NaN
             NaN             NaN             NaN
             NaN             NaN             NaN
             NaN             NaN             NaN
             NaN             NaN             NaN
             NaN             NaN             NaN
             NaN             NaN             NaN
             NaN             NaN             NaN
             NaN             NaN             NaN
             NaN             NaN             NaN
             NaN             NaN             NaN
             NaN             NaN             NaN
             NaN             NaN             NaN
             NaN             NaN             NaN
             NaN             NaN             NaN
             NaN             NaN             NaN
             NaN             NaN             NaN
             NaN             NaN             NaN
             NaN             NaN             NaN
             NaN             NaN             NaN
             NaN             NaN             NaN
             NaN             NaN             NaN
             NaN             NaN             NaN
             NaN             NaN             NaN
             NaN             NaN             NaN
             NaN             NaN             NaN
             NaN             NaN             NaN
             NaN             NaN             NaN
             NaN             NaN             NaN
             NaN             NaN             NaN
             NaN             NaN             NaN
