# Compound: Fe24Li31O16S24. Old comment: Li4Fe3S3O2 Enum Minimum PATH4 INIT FRAME 01
  1.0000000000
  7.8866538400  -7.9475567000   0.0601846200
  7.3433505600   7.9467915400  -2.8792872600
 -0.0478291200  -0.1071026000  10.5527142700
Fe    Li    O     S
   24    31    16    24
Direct
  0.2626428700   0.6648815950   0.6021000333
  0.2345070167   0.3351497467   0.3987802600
  0.1224232533   0.3255496733   0.8006232600
  0.3749504233   0.5792572950   0.8145533667
  0.8747267483   0.1753747067   0.1987364783
  0.1241164617   0.4211065917   0.1851081883
  0.0157547817  -0.0842400117   0.6018796050
 -0.0194175883   0.5839193800   0.3987063450
  0.8706619467   0.5730073383   0.7889964600
  0.1250729850   0.8294033333   0.8167210533
  0.6270881850   0.4262169967   0.1971778217
  0.8730186933   0.6691340167   0.1839988050
  0.7657011117   0.1643360150   0.6022880800
  0.7349950667   0.8301282950   0.3993358917
  0.6269142450   0.8185267367   0.7914106017
  0.8755057683   0.0791328500   0.8160626533
  0.3770189200   0.6756841100   0.1991327617
  0.6244228033  -0.0797005833   0.1867008450
  0.5195656383   0.4205809350   0.6013969083
  0.4855720950   0.0853951583   0.3993169817
  0.3748527417   0.0741699567   0.8030523100
  0.6256212383   0.3287139183   0.8133104067
  0.1248368517  -0.0756154083   0.1975483567
  0.3742953450   0.1702269850   0.1845202683
  0.4770242200   0.4773716867   0.0031379817
  0.0229682833   0.5262641200  -0.0048941417
 -0.0643579517   0.4194209067   0.6062161417
  0.0219614617   0.1217913367   0.3937101700
  0.8745906383   0.3389239317   0.8428511917
  0.1214745967   0.5655719750   0.7714830283
  0.1234394000   0.1629937850   0.1549136017
  0.3773303900   0.4335763000   0.2274499550
  0.2260238583   0.7251312467   0.0050540517
  0.7786160883   0.7778395433  -0.0024156650
  0.7718782683   0.3768885550   0.3966791183
  0.6280360700   0.5879992800   0.8409415417
  0.8706874517   0.8103988000   0.7608088683
  0.8739338217   0.4127845950   0.1549019483
  0.1263123717   0.6834319433   0.2273332750
 -0.0270329267  -0.0248889433   0.0041782117
  0.5273133300   0.0204657050  -0.0045713283
  0.4760604083   0.8793297800   0.6068675233
  0.5280305600   0.6196992333   0.3964227300
  0.3779096433   0.8348726600   0.8436556200
  0.6233903100   0.0657121033   0.7737895867
  0.6246914933   0.6618952900   0.1542274983
  0.8765670467  -0.0661046733   0.2288043367
  0.7252136950   0.2277056367   0.0041809450
  0.2742272250   0.2745396250  -0.0044138217
  0.2280262550   0.1296487400   0.6073762967
  0.2719212733   0.8703212383   0.3934247533
  0.1258330717   0.0874762733   0.8436523383
  0.3731717917   0.3165379367   0.7712962417
  0.3735443233  -0.0873173150   0.1551661800
  0.6270093717   0.1836879650   0.2267387800
 -0.0021290950   0.4531407833   0.8063847150
  0.2482385650   0.7018646500   0.8107549800
  0.0005116600   0.0500246300   0.1954902667
  0.2502128117   0.2981611333   0.1917109483
  0.7518401867   0.7049719050   0.8141798267
 -0.0012919167  -0.0493355317   0.8089064600
  0.7505209850   0.3003062167   0.1957609917
  0.0001154933   0.5479754967   0.1908871333
  0.5011932183  -0.0512008650   0.8052495617
  0.7495698917   0.2012506200   0.8101616750
  0.5010925550   0.5488282150   0.1953106700
  0.7502293883   0.7981613383   0.1916202633
  0.2494925167   0.2014248983   0.8053669867
  0.4997787650   0.4519864883   0.8073460083
  0.2509870817   0.7994917683   0.1961710450
  0.5000142933   0.0476953733   0.1921645217
  0.0004503183   0.2502926700  -0.0009198700
  0.2499775433   0.4997664967   0.0002612483
  0.0048180550   0.3469432733   0.3656386983
  0.2453720667   0.5864053517   0.3664591250
 -0.0044395650   0.1519040833   0.6334247233
  0.2536181283   0.4132979250   0.6331204100
  0.7474684967   0.4973877333   0.0006151050
  0.0032592367   0.7539998900   0.0065931083
  0.7561381567   0.5968870767   0.3636345200
 -0.0052467467   0.8365914683   0.3677668700
  0.7441215317   0.3985462800   0.6339242500
  0.0093953267   0.6638980867   0.6316068100
  0.4974423833   0.7483821633   0.0027796500
  0.7512604950   0.0044196583   0.0054743417
  0.5055709700   0.8464299650   0.3680064333
  0.7444656933   0.0870408000   0.3674530383
  0.4896728000   0.6540608217   0.6347145833
  0.7552149383  -0.0831615083   0.6324444033
  0.2509390600   0.0007435917  -0.0005345150
  0.4995212667   0.2489917617   0.0000966467
  0.2550378383   0.0969016133   0.3669753567
  0.4951499350   0.3368279033   0.3676759917
  0.2446443717  -0.0963067533   0.6337617433
  0.5041163683   0.1612218183   0.6339618717
