# Compound: Fe24Li31O16S24. Old comment:
   1.0000000000000000     
     7.8866538400000001   -7.9475566999999998    0.0601846200000000
     7.3433505600000002    7.9467915400000004   -2.8792872599999999
    -0.0478291200000000   -0.1071026000000000   10.5527142699999992
   Fe   Li   O    S 
    24    31    16    24
Direct
  0.2627295586335136  0.6641922778103003  0.6018369132019238
  0.2351144299144679  0.3363214350763450  0.3973393945589317
  0.1232842942654619  0.3248167083516960  0.8032385925458062
  0.3782485531251539  0.5819123072057650  0.8142878309281509
  0.8744125795192412  0.1752972492556337  0.1988619373555633
  0.1247318893265853  0.4216219811242400  0.1854250462988756
  0.0208530854560577  0.9208906628684036  0.6005625003059675
  0.9803571001140714  0.5849523717446526  0.3983270022285236
  0.8731874674649424  0.5761719618819821  0.7927135762237013
  0.1247666834313391  0.8284533402733194  0.8154810957568158
  0.6285591033582557  0.4274479721535406  0.1952785391254206
  0.8734630225918744  0.6689390117326510  0.1825896411966635
  0.7641038201280715  0.1635163272782442  0.6019987275909061
  0.7351016495682409  0.8297245648162689  0.3984658419780110
  0.6285116049549215  0.8219408331146438  0.7928511913086648
  0.8748032982951022  0.0784912821963582  0.8148954849869087
  0.3784947355957010  0.6770257257564121  0.1995311912363461
  0.6247082837807195  0.9206696353520867  0.1856723673590621
  0.5073463534067859  0.4070144332219421  0.5978273352450002
  0.4848536176962044  0.0826168132842757  0.3982696430970000
  0.3741857021244992  0.0742399641379569  0.8031335721046539
  0.6282325955782296  0.3318561172972874  0.8139197314975840
  0.1250748540207711  0.9242438348301742  0.1968574953928107
  0.3744899642593341  0.1707947784446131  0.1850013816046025
  0.4841150705979145  0.4853675354401935  0.0005603339601293
  0.0238550696013454  0.5250717920289749  0.9950667060217423
  0.9766549236065752  0.3797606725409854  0.6064355164170653
  0.0229619547344479  0.1214552541886190  0.3925770579644906
  0.8751972273262553  0.3387851530432662  0.8431940149515940
  0.1255149202195142  0.5653894393250559  0.7754204126821134
  0.1228741756575276  0.1622253702396067  0.1534612059707994
  0.3783502692958122  0.4336449195189277  0.2214394401031270
  0.2271547890904411  0.7251605494273122  0.0049749334268063
  0.7745511017317653  0.7741530537472204  0.9945786445873253
  0.6313718768010238  0.5798182237272693  0.7941912088328492
  0.7700880632597423  0.3801133359095238  0.3966944673091021
  0.8704056603485260  0.8070541969771342  0.7479304746005271
  0.8744110336103619  0.4130033793658671  0.1540292710350739
  0.1271077232702965  0.6839812727587828  0.2283024798405243
  0.9705329429398986  0.9719662631371477  0.0020183483014973
  0.5265027027077149  0.0218413707393001  0.9957025837802924
  0.4775277994972508  0.8775178516200072  0.6072460262394007
  0.5301335926765143  0.6178638276924368  0.3964506281918713
  0.3780368020391386  0.8359331158464169  0.8439889153392924
  0.6216091376718595  0.0693134487562271  0.7755109442278117
  0.6260979646575285  0.6627662545893628  0.1512506252779793
  0.8765496257854003  0.9335078408971549  0.2285320603904616
  0.7252248797104733  0.2274603990260355  0.0040062572106119
  0.2743875726842374  0.2737993510535781  0.9968655079684413
  0.2313474549267075  0.1338590960789153  0.6081121828689532
  0.2733889963533562  0.8718942514281749  0.3933124715061655
  0.1256591411490513  0.0869337687858835  0.8454879874685004
  0.3733696958855062  0.3194362453142647  0.7822819266345282
  0.3738130841567372  0.9123866893986791  0.1535636830774944
  0.6271868010086294  0.1844240413307822  0.2273578691794940
  0.9992010861814612  0.4521633574799464  0.8048275349944928
  0.2495032386669273  0.7023994513350350  0.8110243730024818
 -0.0000291852774680  0.0489460823590210  0.1936318399219177
  0.2498686494312595  0.2978372466531702  0.1905163473120625
  0.7541839134573290  0.7070708166000561  0.8108761764997778
  0.9983453986295193  0.9495449477456163  0.8055556620915892
  0.7507252786566200  0.3007305345890200  0.1950209010331150
  0.0012272002555255  0.5483220786708909  0.1908239547741047
  0.5008288637443028  0.9504146433964543  0.8053927008710674
  0.7496813665291141  0.2021299266712791  0.8104020870977873
  0.5030904418033746  0.5504791967706458  0.1935797206225555
  0.7507116466069657  0.7984921722006747  0.1908312054427100
  0.2492270462708624  0.2008475327281292  0.8070451755200077
  0.5009293341822406  0.4523749702270087  0.8047567819761755
  0.2513495335174050  0.7994029746467015  0.1958342732456892
  0.4999720794888090  0.0481275240794261  0.1918970084460230
  0.0005853970332473  0.2503925696068670  0.9987091180647307
  0.2512676343616940  0.4986164869131096  0.9981763512326375
  0.0049859084299188  0.3467884412504443  0.3661098876113788
  0.2471574287788841  0.5857675931391888  0.3654684579319848
  0.9959009884455525  0.1540885300671942  0.6331008325279875
  0.2569020879668761  0.4116319074714794  0.6322535655545087
  0.7498434840009853  0.4984346470507245  0.9988781746832076
  0.0032284852236005  0.7516683915127031  0.0043267416255628
  0.7574828301738105  0.5977754240951265  0.3625446042622998
  0.9953481374437473  0.8370940413595722  0.3680662103990531
  0.7452257453645730  0.3989210492469398  0.6331329368065589
  0.0134266771939286  0.6598429280437667  0.6308436376813047
  0.4981335279139651  0.7499213482949633  0.0022115534010049
  0.7500433961634435  0.0042433901338183  0.0037824655872168
  0.5057977978951658  0.8471035546006911  0.3682871811358904
  0.7446859643054032  0.0872595212771672  0.3665657493781631
  0.4905295786731597  0.6541391664305353  0.6341369156172963
  0.7523859049167633  0.9207627298893730  0.6311806745091358
  0.2503954865886388  0.0003812344722660  0.9995016006463844
  0.4994849193325441  0.2506599543437699  0.9988159300681900
  0.2548931040993141  0.0971244600540426  0.3664912377177612
  0.4949687496823447  0.3379097841961472  0.3636293376837417
  0.2457626667146230  0.9040680876848907  0.6335806705837244
  0.5029553937065601  0.1652322675925400  0.6326682815389046

             NaN             NaN             NaN
             NaN             NaN             NaN
             NaN             NaN             NaN
             NaN             NaN             NaN
             NaN             NaN             NaN
             NaN             NaN             NaN
             NaN             NaN             NaN
             NaN             NaN             NaN
             NaN             NaN             NaN
             NaN             NaN             NaN
             NaN             NaN             NaN
             NaN             NaN             NaN
             NaN             NaN             NaN
             NaN             NaN             NaN
             NaN             NaN             NaN
             NaN             NaN             NaN
             NaN             NaN             NaN
             NaN             NaN             NaN
             NaN             NaN             NaN
             NaN             NaN             NaN
             NaN             NaN             NaN
             NaN             NaN             NaN
             NaN             NaN             NaN
             NaN             NaN             NaN
             NaN             NaN             NaN
             NaN             NaN             NaN
             NaN             NaN             NaN
             NaN             NaN             NaN
             NaN             NaN             NaN
             NaN             NaN             NaN
             NaN             NaN             NaN
             NaN             NaN             NaN
             NaN             NaN             NaN
             NaN             NaN             NaN
             NaN             NaN             NaN
             NaN             NaN             NaN
             NaN             NaN             NaN
             NaN             NaN             NaN
             NaN             NaN             NaN
             NaN             NaN             NaN
             NaN             NaN             NaN
             NaN             NaN             NaN
             NaN             NaN             NaN
             NaN             NaN             NaN
             NaN             NaN             NaN
             NaN             NaN             NaN
             NaN             NaN             NaN
             NaN             NaN             NaN
             NaN             NaN             NaN
             NaN             NaN             NaN
             NaN             NaN             NaN
             NaN             NaN             NaN
             NaN             NaN             NaN
             NaN             NaN             NaN
             NaN             NaN             NaN
             NaN             NaN             NaN
             NaN             NaN             NaN
             NaN             NaN             NaN
             NaN             NaN             NaN
             NaN             NaN             NaN
             NaN             NaN             NaN
             NaN             NaN             NaN
             NaN             NaN             NaN
             NaN             NaN             NaN
             NaN             NaN             NaN
             NaN             NaN             NaN
             NaN             NaN             NaN
             NaN             NaN             NaN
             NaN             NaN             NaN
             NaN             NaN             NaN
             NaN             NaN             NaN
             NaN             NaN             NaN
             NaN             NaN             NaN
             NaN             NaN             NaN
             NaN             NaN             NaN
             NaN             NaN             NaN
             NaN             NaN             NaN
             NaN             NaN             NaN
             NaN             NaN             NaN
             NaN             NaN             NaN
             NaN             NaN             NaN
             NaN             NaN             NaN
             NaN             NaN             NaN
             NaN             NaN             NaN
             NaN             NaN             NaN
             NaN             NaN             NaN
             NaN             NaN             NaN
             NaN             NaN             NaN
             NaN             NaN             NaN
             NaN             NaN             NaN
             NaN             NaN             NaN
             NaN             NaN             NaN
             NaN             NaN             NaN
             NaN             NaN             NaN
             NaN             NaN             NaN
