# Compound: Fe24Li31O16S24. Old comment: Fe24Li31O16S24
  1.0000000000
  7.8866538400  -7.9475567000   0.0601846200
  7.3433505600   7.9467915400  -2.8792872600
 -0.0478291200  -0.1071026000  10.5527142700
Fe    Li    O     S
   24    31    16    24
Direct
  0.2625760477   0.6637790138   0.6020256775
  0.2347394075   0.3357004784   0.3974429071
  0.1234464796   0.3250422113   0.8030672618
  0.3783177114   0.5819733384   0.8144939110
  0.8744590815   0.1753292060   0.1991017623
  0.1248096446   0.4217187592   0.1856030560
  0.0197138885   0.9199806806   0.6009399391
  0.9804142868   0.5850372371   0.3985552115
  0.8731102493   0.5763268958   0.7930252428
  0.1250955124   0.8288923958   0.8158178605
  0.6284856226   0.4274048169   0.1954710162
  0.8732864147   0.6688361479   0.1829042919
  0.7636131499   0.1632843571   0.6021684350
  0.7349433966   0.8295793903   0.3986256244
  0.6285717644   0.8218592384   0.7929796627
  0.8751428111   0.0789720705   0.8153632453
  0.3783789152   0.6769002602   0.1992615215
  0.6245521866   0.9205922440   0.1860518157
  0.5078846583   0.4075875261   0.5973749937
  0.4845941507   0.0827687303   0.3983760929
  0.3744665585   0.0744051608   0.8031217641
  0.6282289948   0.3318775232   0.8139457828
  0.1251164649   0.9244086274   0.1972188026
  0.3744699873   0.1707546598   0.1848013931
  0.4830609909   0.4839168506   0.0003058904
  0.0235622558   0.5249428428   0.9952670141
  0.9765951757   0.3796381403   0.6066403262
  0.0225820565   0.1212911747   0.3927832898
  0.8752644274   0.3389232743   0.8433054682
  0.1252604620   0.5659366321   0.7759278814
  0.1229436786   0.1623288949   0.1533921272
  0.3782691898   0.4340361546   0.2228710987
  0.2271036495   0.7254053608   0.0051203611
  0.7742248902   0.7739788011   0.9950267469
  0.6313002635   0.5793192652   0.7927513950
  0.7703314471   0.3799746186   0.3967351169
  0.8706728827   0.8080159736   0.7506019643
  0.8744023848   0.4129685886   0.1541692142
  0.1268475653   0.6839732473   0.2280401043
  0.9707531015   0.9722457030   0.0025080940
  0.5264474712   0.0214259297   0.9958862559
  0.4772777135   0.8777808457   0.6074580412
  0.5304572593   0.6191103916   0.3963148381
  0.3781419904   0.8360300941   0.8441313128
  0.6220346097   0.0691745010   0.7761412757
  0.6258276567   0.6622078868   0.1501074741
  0.8764599888   0.9333116794   0.2284392086
  0.7252965950   0.2276661949   0.0042546727
  0.2750397706   0.2745615034   0.9965498383
  0.2290689425   0.1313006708   0.6080575638
  0.2730739820   0.8709413966   0.3934784074
  0.1258491102   0.0872410944   0.8458558460
  0.3732974108   0.3185879997   0.7791760318
  0.3737225137   0.9124124440   0.1538582197
  0.6273035506   0.1841292815   0.2272481528
  0.9991633588   0.4523271130   0.8048655442
  0.2495880490   0.7026218050   0.8112600951
  0.0000420453   0.0490427363   0.1938728491
  0.2499355092   0.2979580477   0.1906644727
  0.7539352576   0.7069547714   0.8113444466
  0.9985341605   0.9499907909   0.8064413742
  0.7507773667   0.3006982111   0.1952203636
  0.0011330249   0.5482748605   0.1910219956
  0.5009915335   0.9503146887   0.8054306608
  0.7498273246   0.2022503437   0.8106751377
  0.5029319537   0.5503052447   0.1934422530
  0.7504210698   0.7982278439   0.1909478119
  0.2493924000   0.2009292098   0.8065985065
  0.5007851351   0.4520895533   0.8042500117
  0.2512277707   0.7994494571   0.1959294262
  0.4998665222   0.0480423119   0.1920746646
  0.0007422974   0.2506205272   0.9988977046
  0.2511347477   0.4988697084   0.9982066315
  0.0049694785   0.3468530654   0.3663800540
  0.2469271077   0.5861778151   0.3655882345
  0.9957767320   0.1540140608   0.6333002604
  0.2565835711   0.4124404021   0.6321119135
  0.7499673632   0.4982044214  -0.0009851165
  0.0030647991   0.7516842903   0.0044523288
  0.7574032251   0.5976447010   0.3627935036
  0.9952242158   0.8370336264   0.3681014379
  0.7452578459   0.3990469686   0.6331456543
  0.0132132196   0.6607642080   0.6312040567
  0.4978549957   0.7500983178   0.0023977696
  0.7500749411   0.0041859614   0.0039740680
  0.5056412120   0.8470632265   0.3685299221
  0.7447748557   0.0871021922   0.3666492575
  0.4906832946   0.6540905427   0.6340165631
  0.7532031826   0.9206417576   0.6314528295
  0.2505493924   0.0005561964   0.9997111081
  0.4996139208   0.2504018332  -0.0012281403
  0.2548074924   0.0971228370   0.3668888880
  0.4950285418   0.3374815072   0.3634728708
  0.2455873628   0.9040652013   0.6338427258
  0.5037698597   0.1647962084   0.6326291779
