# Compound: Li48Fe36S36O24. Old comment:
   1.00000000000000     
    15.2116282999999992    0.0051695600000000   -2.7836159199999999
    -0.4079866500000000   11.9356577399999999   -2.2073588399999999
    -0.0617556700000000   -0.1116819700000000   10.5444263800000009
   Li   Fe   S    O 
    48    36    36    24
Direct
  0.4752751600000025  0.0007436699999985  0.0044619999999966
  0.9752751600000025  0.0007436699999985  0.0044619999999966
  0.4752751600000025  0.3340770033000027  0.0044619999999966
  0.9752751600000025  0.3340770033000027  0.0044619999999966
  0.4752751600000025  0.6674103367000015  0.0044619999999966
  0.9752751600000025  0.6674103367000015  0.0044619999999966
  0.2747248399999975  0.3325896632999985  0.9955380000000034
  0.7747248399999975  0.3325896632999985  0.9955380000000034
  0.2747248399999975  0.6659229966999973  0.9955380000000034
  0.7747248399999975  0.6659229966999973  0.9955380000000034
  0.2747248399999975  0.9992563300000015  0.9955380000000034
  0.7747248399999975  0.9992563300000015  0.9955380000000034
  0.1778880549999968  0.2679717932999992  0.6078307399999971
  0.6778880549999968  0.2679717932999992  0.6078307399999971
  0.1778880549999968  0.6013051266999980  0.6078307399999971
  0.6778880549999968  0.6013051266999980  0.6078307399999971
  0.1778880549999968  0.9346384600000022  0.6078307399999971
  0.6778880549999968  0.9346384600000022  0.6078307399999971
  0.0721119450000032  0.0653615399999978  0.3921692600000029
  0.5721119450000032  0.0653615399999978  0.3921692600000029
  0.0721119450000032  0.3986948733000020  0.3921692600000029
  0.5721119450000032  0.3986948733000020  0.3921692600000029
  0.0721119450000032  0.7320282067000008  0.3921692600000029
  0.5721119450000032  0.7320282067000008  0.3921692600000029
  0.1073387499999967  0.3076557133000009  0.8459342800000016
  0.6073387499999967  0.3076557133000009  0.8459342800000016
  0.1073387499999967  0.6409890466999997  0.8459342800000016
  0.6073387499999967  0.6409890466999997  0.8459342800000016
  0.1073387499999967  0.9743223799999967  0.8459342800000016
  0.6073387499999967  0.9743223799999967  0.8459342800000016
  0.3446441600000014  0.2953931200000000  0.7723587199999997
  0.8446441600000014  0.2953931200000000  0.7723587199999997
  0.3446441600000014  0.6287264532999970  0.7723587199999997
  0.8446441600000014  0.6287264532999970  0.7723587199999997
  0.3446441600000014  0.9620597867000029  0.7723587199999997
  0.8446441600000014  0.9620597867000029  0.7723587199999997
  0.1426612500000033  0.0256776200000033  0.1540657199999984
  0.6426612500000033  0.0256776200000033  0.1540657199999984
  0.1426612500000033  0.3590109533000003  0.1540657199999984
  0.6426612500000033  0.3590109533000003  0.1540657199999984
  0.1426612500000033  0.6923442866999991  0.1540657199999984
  0.6426612500000033  0.6923442866999991  0.1540657199999984
  0.4053558399999986  0.0379402132999971  0.2276412800000003
  0.9053558399999986  0.0379402132999971  0.2276412800000003
  0.4053558399999986  0.3712735467000030  0.2276412800000003
  0.9053558399999986  0.3712735467000030  0.2276412800000003
  0.4053558399999986  0.7046068800000000  0.2276412800000003
  0.9053558399999986  0.7046068800000000  0.2276412800000003
  0.4645258361000018  0.2669141633000010  0.6014849800000022
  0.9651724900000005  0.2669141633000010  0.6014849800000022
  0.4651724900000005  0.6002474966999998  0.6014849800000022
  0.9651724900000005  0.6002474966999998  0.6014849800000022
  0.4651724900000005  0.9335808299999968  0.6014849800000022
  0.9651724900000005  0.9335808299999968  0.6014849800000022
  0.2848275099999995  0.0664191700000032  0.3985150199999978
  0.7848275099999995  0.0664191700000032  0.3985150199999978
  0.2848275099999995  0.3997525033000002  0.3985150199999978
  0.7848275099999995  0.3997525033000002  0.3985150199999978
  0.2848275099999995  0.7330858366999990  0.3985150199999978
  0.7848275099999995  0.7330858366999990  0.3985150199999978
  0.2244741550000029  0.1335371133000010  0.8012226800000022
  0.7244741550000029  0.1335371133000010  0.8012226800000022
  0.2244741550000029  0.4668704466999998  0.8012226800000022
  0.7244741550000029  0.4668704466999998  0.8012226800000022
  0.2244741550000029  0.8002037799999968  0.8012226800000022
  0.7244741550000029  0.8002037799999968  0.8012226800000022
  0.4779647949999983  0.1358252100000001  0.8149512600000008
  0.9779647949999983  0.1358252100000001  0.8149512600000008
  0.4779647949999983  0.4691585432999972  0.8149512600000008
  0.9779647949999983  0.4691585432999972  0.8149512600000008
  0.4779647949999983  0.8024918767000031  0.8149512600000008
  0.9779647949999983  0.8024918767000031  0.8149512600000008
  0.0255258449999971  0.1997962200000032  0.1987773199999978
  0.5255258449999971  0.1997962200000032  0.1987773199999978
  0.0255258449999971  0.5331295533000002  0.1987773199999978
  0.5255258449999971  0.5331295533000002  0.1987773199999978
  0.0255258449999971  0.8664628866999990  0.1987773199999978
  0.5255258449999971  0.8664628866999990  0.1987773199999978
  0.2720352050000017  0.1975081232999969  0.1850487399999992
  0.7720352050000017  0.1975081232999969  0.1850487399999992
  0.2720352050000017  0.5308414567000028  0.1850487399999992
  0.7720352050000017  0.5308414567000028  0.1850487399999992
  0.2720352050000017  0.8641747899999999  0.1850487399999992
  0.7720352050000017  0.8641747899999999  0.1850487399999992
  0.1250000000000000  0.1666666667000030  0.0000000000000000
  0.6250000000000000  0.1666666667000030  0.0000000000000000
  0.1250000000000000  0.5000000000000000  0.0000000000000000
  0.6250000000000000  0.5000000000000000  0.0000000000000000
  0.1250000000000000  0.8333333332999970  0.0000000000000000
  0.6250000000000000  0.8333333332999970  0.0000000000000000
  0.3750000000000000  0.1666666667000030  0.0000000000000000
  0.8750000000000000  0.1666666667000030  0.0000000000000000
  0.3750000000000000  0.5000000000000000  0.0000000000000000
  0.8750000000000000  0.5000000000000000  0.0000000000000000
  0.3750000000000000  0.8333333332999970  0.0000000000000000
  0.8750000000000000  0.8333333332999970  0.0000000000000000
  0.1761473749999993  0.2280980499999998  0.3685882999999990
  0.6761473749999993  0.2280980499999998  0.3685882999999990
  0.1761473749999993  0.5614313832999969  0.3685882999999990
  0.6761473749999993  0.5614313832999969  0.3685882999999990
  0.1761473749999993  0.8947647167000028  0.3685882999999990
  0.6761473749999993  0.8947647167000028  0.3685882999999990
  0.4154210649999968  0.2279364266999977  0.3676185500000031
  0.9154210649999968  0.2279364266999977  0.3676185500000031
  0.4154210649999968  0.5612697600000018  0.3676185500000031
  0.9154210649999968  0.5612697600000018  0.3676185500000031
  0.4154210649999968  0.8946030932999989  0.3676185500000031
  0.9154210649999968  0.8946030932999989  0.3676185500000031
  0.0738526250000007  0.1052352832999972  0.6314117000000010
  0.5738526250000007  0.1052352832999972  0.6314117000000010
  0.0738526250000007  0.4385686167000031  0.6314117000000010
  0.5738526250000007  0.4385686167000031  0.6314117000000010
  0.0738526250000007  0.7719019500000002  0.6314117000000010
  0.5738526250000007  0.7719019500000002  0.6314117000000010
  0.3345789350000032  0.1053969067000011  0.6323814499999969
  0.8345789350000032  0.1053969067000011  0.6323814499999969
  0.3345789350000032  0.4387302399999982  0.6323814499999969
  0.8345789350000032  0.4387302399999982  0.6323814499999969
  0.3345789350000032  0.7720635733000023  0.6323814499999969
  0.8345789350000032  0.7720635733000023  0.6323814499999969
  0.2252700299999972  0.3009334233000018  0.8056005299999995
  0.7252700299999972  0.3009334233000018  0.8056005299999995
  0.2252700299999972  0.6342667567000007  0.8056005299999995
  0.7252700299999972  0.6342667567000007  0.8056005299999995
  0.2252700299999972  0.9676000899999977  0.8056005299999995
  0.7252700299999972  0.9676000899999977  0.8056005299999995
  0.4761832399999975  0.3014335267000021  0.8086011600000020
  0.9761832399999975  0.3014335267000021  0.8086011600000020
  0.4761832399999975  0.6347668599999992  0.8086011600000020
  0.9761832399999975  0.6347668599999992  0.8086011600000020
  0.4761832399999975  0.9681001933000033  0.8086011600000020
  0.9761832399999975  0.9681001933000033  0.8086011600000020
  0.0247299700000028  0.0323999100000023  0.1943994700000005
  0.5247299700000028  0.0323999100000023  0.1943994700000005
  0.0247299700000028  0.3657332432999993  0.1943994700000005
  0.5247299700000028  0.3657332432999993  0.1943994700000005
  0.0247299700000028  0.6990665766999982  0.1943994700000005
  0.5247299700000028  0.6990665766999982  0.1943994700000005
  0.2738167600000025  0.0318998066999967  0.1913988399999980
  0.7738167600000025  0.0318998066999967  0.1913988399999980
  0.2738167600000025  0.3652331400000008  0.1913988399999980
  0.7738167600000025  0.3652331400000008  0.1913988399999980
  0.2738167600000025  0.6985664732999979  0.1913988399999980
  0.7738167600000025  0.6985664732999979  0.1913988399999980
 
  0.00000000E+00  0.00000000E+00  0.00000000E+00
  0.00000000E+00  0.00000000E+00  0.00000000E+00
  0.00000000E+00  0.00000000E+00  0.00000000E+00
  0.00000000E+00  0.00000000E+00  0.00000000E+00
  0.00000000E+00  0.00000000E+00  0.00000000E+00
  0.00000000E+00  0.00000000E+00  0.00000000E+00
  0.00000000E+00  0.00000000E+00  0.00000000E+00
  0.00000000E+00  0.00000000E+00  0.00000000E+00
  0.00000000E+00  0.00000000E+00  0.00000000E+00
  0.00000000E+00  0.00000000E+00  0.00000000E+00
  0.00000000E+00  0.00000000E+00  0.00000000E+00
  0.00000000E+00  0.00000000E+00  0.00000000E+00
  0.00000000E+00  0.00000000E+00  0.00000000E+00
  0.00000000E+00  0.00000000E+00  0.00000000E+00
  0.00000000E+00  0.00000000E+00  0.00000000E+00
  0.00000000E+00  0.00000000E+00  0.00000000E+00
  0.00000000E+00  0.00000000E+00  0.00000000E+00
  0.00000000E+00  0.00000000E+00  0.00000000E+00
  0.00000000E+00  0.00000000E+00  0.00000000E+00
  0.00000000E+00  0.00000000E+00  0.00000000E+00
  0.00000000E+00  0.00000000E+00  0.00000000E+00
  0.00000000E+00  0.00000000E+00  0.00000000E+00
  0.00000000E+00  0.00000000E+00  0.00000000E+00
  0.00000000E+00  0.00000000E+00  0.00000000E+00
  0.00000000E+00  0.00000000E+00  0.00000000E+00
  0.00000000E+00  0.00000000E+00  0.00000000E+00
  0.00000000E+00  0.00000000E+00  0.00000000E+00
  0.00000000E+00  0.00000000E+00  0.00000000E+00
  0.00000000E+00  0.00000000E+00  0.00000000E+00
  0.00000000E+00  0.00000000E+00  0.00000000E+00
  0.00000000E+00  0.00000000E+00  0.00000000E+00
  0.00000000E+00  0.00000000E+00  0.00000000E+00
  0.00000000E+00  0.00000000E+00  0.00000000E+00
  0.00000000E+00  0.00000000E+00  0.00000000E+00
  0.00000000E+00  0.00000000E+00  0.00000000E+00
  0.00000000E+00  0.00000000E+00  0.00000000E+00
  0.00000000E+00  0.00000000E+00  0.00000000E+00
  0.00000000E+00  0.00000000E+00  0.00000000E+00
  0.00000000E+00  0.00000000E+00  0.00000000E+00
  0.00000000E+00  0.00000000E+00  0.00000000E+00
  0.00000000E+00  0.00000000E+00  0.00000000E+00
  0.00000000E+00  0.00000000E+00  0.00000000E+00
  0.00000000E+00  0.00000000E+00  0.00000000E+00
  0.00000000E+00  0.00000000E+00  0.00000000E+00
  0.00000000E+00  0.00000000E+00  0.00000000E+00
  0.00000000E+00  0.00000000E+00  0.00000000E+00
  0.00000000E+00  0.00000000E+00  0.00000000E+00
  0.00000000E+00  0.00000000E+00  0.00000000E+00
  0.00000000E+00  0.00000000E+00  0.00000000E+00
  0.00000000E+00  0.00000000E+00  0.00000000E+00
  0.00000000E+00  0.00000000E+00  0.00000000E+00
  0.00000000E+00  0.00000000E+00  0.00000000E+00
  0.00000000E+00  0.00000000E+00  0.00000000E+00
  0.00000000E+00  0.00000000E+00  0.00000000E+00
  0.00000000E+00  0.00000000E+00  0.00000000E+00
  0.00000000E+00  0.00000000E+00  0.00000000E+00
  0.00000000E+00  0.00000000E+00  0.00000000E+00
  0.00000000E+00  0.00000000E+00  0.00000000E+00
  0.00000000E+00  0.00000000E+00  0.00000000E+00
  0.00000000E+00  0.00000000E+00  0.00000000E+00
  0.00000000E+00  0.00000000E+00  0.00000000E+00
  0.00000000E+00  0.00000000E+00  0.00000000E+00
  0.00000000E+00  0.00000000E+00  0.00000000E+00
  0.00000000E+00  0.00000000E+00  0.00000000E+00
  0.00000000E+00  0.00000000E+00  0.00000000E+00
  0.00000000E+00  0.00000000E+00  0.00000000E+00
  0.00000000E+00  0.00000000E+00  0.00000000E+00
  0.00000000E+00  0.00000000E+00  0.00000000E+00
  0.00000000E+00  0.00000000E+00  0.00000000E+00
  0.00000000E+00  0.00000000E+00  0.00000000E+00
  0.00000000E+00  0.00000000E+00  0.00000000E+00
  0.00000000E+00  0.00000000E+00  0.00000000E+00
  0.00000000E+00  0.00000000E+00  0.00000000E+00
  0.00000000E+00  0.00000000E+00  0.00000000E+00
  0.00000000E+00  0.00000000E+00  0.00000000E+00
  0.00000000E+00  0.00000000E+00  0.00000000E+00
  0.00000000E+00  0.00000000E+00  0.00000000E+00
  0.00000000E+00  0.00000000E+00  0.00000000E+00
  0.00000000E+00  0.00000000E+00  0.00000000E+00
  0.00000000E+00  0.00000000E+00  0.00000000E+00
  0.00000000E+00  0.00000000E+00  0.00000000E+00
  0.00000000E+00  0.00000000E+00  0.00000000E+00
  0.00000000E+00  0.00000000E+00  0.00000000E+00
  0.00000000E+00  0.00000000E+00  0.00000000E+00
  0.00000000E+00  0.00000000E+00  0.00000000E+00
  0.00000000E+00  0.00000000E+00  0.00000000E+00
  0.00000000E+00  0.00000000E+00  0.00000000E+00
  0.00000000E+00  0.00000000E+00  0.00000000E+00
  0.00000000E+00  0.00000000E+00  0.00000000E+00
  0.00000000E+00  0.00000000E+00  0.00000000E+00
  0.00000000E+00  0.00000000E+00  0.00000000E+00
  0.00000000E+00  0.00000000E+00  0.00000000E+00
  0.00000000E+00  0.00000000E+00  0.00000000E+00
  0.00000000E+00  0.00000000E+00  0.00000000E+00
  0.00000000E+00  0.00000000E+00  0.00000000E+00
  0.00000000E+00  0.00000000E+00  0.00000000E+00
  0.00000000E+00  0.00000000E+00  0.00000000E+00
  0.00000000E+00  0.00000000E+00  0.00000000E+00
  0.00000000E+00  0.00000000E+00  0.00000000E+00
  0.00000000E+00  0.00000000E+00  0.00000000E+00
  0.00000000E+00  0.00000000E+00  0.00000000E+00
  0.00000000E+00  0.00000000E+00  0.00000000E+00
  0.00000000E+00  0.00000000E+00  0.00000000E+00
  0.00000000E+00  0.00000000E+00  0.00000000E+00
  0.00000000E+00  0.00000000E+00  0.00000000E+00
  0.00000000E+00  0.00000000E+00  0.00000000E+00
  0.00000000E+00  0.00000000E+00  0.00000000E+00
  0.00000000E+00  0.00000000E+00  0.00000000E+00
  0.00000000E+00  0.00000000E+00  0.00000000E+00
  0.00000000E+00  0.00000000E+00  0.00000000E+00
  0.00000000E+00  0.00000000E+00  0.00000000E+00
  0.00000000E+00  0.00000000E+00  0.00000000E+00
  0.00000000E+00  0.00000000E+00  0.00000000E+00
  0.00000000E+00  0.00000000E+00  0.00000000E+00
  0.00000000E+00  0.00000000E+00  0.00000000E+00
  0.00000000E+00  0.00000000E+00  0.00000000E+00
  0.00000000E+00  0.00000000E+00  0.00000000E+00
  0.00000000E+00  0.00000000E+00  0.00000000E+00
  0.00000000E+00  0.00000000E+00  0.00000000E+00
  0.00000000E+00  0.00000000E+00  0.00000000E+00
  0.00000000E+00  0.00000000E+00  0.00000000E+00
  0.00000000E+00  0.00000000E+00  0.00000000E+00
  0.00000000E+00  0.00000000E+00  0.00000000E+00
  0.00000000E+00  0.00000000E+00  0.00000000E+00
  0.00000000E+00  0.00000000E+00  0.00000000E+00
  0.00000000E+00  0.00000000E+00  0.00000000E+00
  0.00000000E+00  0.00000000E+00  0.00000000E+00
  0.00000000E+00  0.00000000E+00  0.00000000E+00
  0.00000000E+00  0.00000000E+00  0.00000000E+00
  0.00000000E+00  0.00000000E+00  0.00000000E+00
  0.00000000E+00  0.00000000E+00  0.00000000E+00
  0.00000000E+00  0.00000000E+00  0.00000000E+00
  0.00000000E+00  0.00000000E+00  0.00000000E+00
  0.00000000E+00  0.00000000E+00  0.00000000E+00
  0.00000000E+00  0.00000000E+00  0.00000000E+00
  0.00000000E+00  0.00000000E+00  0.00000000E+00
  0.00000000E+00  0.00000000E+00  0.00000000E+00
  0.00000000E+00  0.00000000E+00  0.00000000E+00
  0.00000000E+00  0.00000000E+00  0.00000000E+00
  0.00000000E+00  0.00000000E+00  0.00000000E+00
  0.00000000E+00  0.00000000E+00  0.00000000E+00
  0.00000000E+00  0.00000000E+00  0.00000000E+00
  0.00000000E+00  0.00000000E+00  0.00000000E+00
  0.00000000E+00  0.00000000E+00  0.00000000E+00
