# Compound: Li48Fe36S36O24. Old comment: Fe3Li4O2S3 supercell_26
  1.0000000000
 15.2116283000   0.0051695600  -2.7836159200
 -0.4079866500  11.9356577400  -2.2073588400
 -0.0617556700  -0.1116819700  10.5444263800
Li    Fe    S     O
   48    36    36    24
Direct
  0.4752751600   0.0007436700   0.0044620000
  0.9752751600   0.0007436700   0.0044620000
  0.4752751600   0.3340770033   0.0044620000
  0.9752751600   0.3340770033   0.0044620000
  0.4752751600   0.6674103367   0.0044620000
  0.9752751600   0.6674103367   0.0044620000
  0.2747248400   0.3325896633   0.9955380000
  0.7747248400   0.3325896633   0.9955380000
  0.2747248400   0.6659229967   0.9955380000
  0.7747248400   0.6659229967   0.9955380000
  0.2747248400   0.9992563300   0.9955380000
  0.7747248400   0.9992563300   0.9955380000
  0.1778880550   0.2679717933   0.6078307400
  0.6778880550   0.2679717933   0.6078307400
  0.1778880550   0.6013051267   0.6078307400
  0.6778880550   0.6013051267   0.6078307400
  0.1778880550   0.9346384600   0.6078307400
  0.6778880550   0.9346384600   0.6078307400
  0.0721119450   0.0653615400   0.3921692600
  0.5721119450   0.0653615400   0.3921692600
  0.0721119450   0.3986948733   0.3921692600
  0.5721119450   0.3986948733   0.3921692600
  0.0721119450   0.7320282067   0.3921692600
  0.5721119450   0.7320282067   0.3921692600
  0.1073387500   0.3076557133   0.8459342800
  0.6073387500   0.3076557133   0.8459342800
  0.1073387500   0.6409890467   0.8459342800
  0.6073387500   0.6409890467   0.8459342800
  0.1073387500   0.9743223800   0.8459342800
  0.6073387500   0.9743223800   0.8459342800
  0.3446441600   0.2953931200   0.7723587200
  0.8446441600   0.2953931200   0.7723587200
  0.3446441600   0.6287264533   0.7723587200
  0.8446441600   0.6287264533   0.7723587200
  0.3446441600   0.9620597867   0.7723587200
  0.8446441600   0.9620597867   0.7723587200
  0.1426612500   0.0256776200   0.1540657200
  0.6426612500   0.0256776200   0.1540657200
  0.1426612500   0.3590109533   0.1540657200
  0.6426612500   0.3590109533   0.1540657200
  0.1426612500   0.6923442867   0.1540657200
  0.6426612500   0.6923442867   0.1540657200
  0.4053558400   0.0379402133   0.2276412800
  0.9053558400   0.0379402133   0.2276412800
  0.4053558400   0.3712735467   0.2276412800
  0.9053558400   0.3712735467   0.2276412800
  0.4053558400   0.7046068800   0.2276412800
  0.9053558400   0.7046068800   0.2276412800
  0.4645258361   0.2669141633   0.6014849800
  0.9651724900   0.2669141633   0.6014849800
  0.4651724900   0.6002474967   0.6014849800
  0.9651724900   0.6002474967   0.6014849800
  0.4651724900   0.9335808300   0.6014849800
  0.9651724900   0.9335808300   0.6014849800
  0.2848275100   0.0664191700   0.3985150200
  0.7848275100   0.0664191700   0.3985150200
  0.2848275100   0.3997525033   0.3985150200
  0.7848275100   0.3997525033   0.3985150200
  0.2848275100   0.7330858367   0.3985150200
  0.7848275100   0.7330858367   0.3985150200
  0.2244741550   0.1335371133   0.8012226800
  0.7244741550   0.1335371133   0.8012226800
  0.2244741550   0.4668704467   0.8012226800
  0.7244741550   0.4668704467   0.8012226800
  0.2244741550   0.8002037800   0.8012226800
  0.7244741550   0.8002037800   0.8012226800
  0.4779647950   0.1358252100   0.8149512600
  0.9779647950   0.1358252100   0.8149512600
  0.4779647950   0.4691585433   0.8149512600
  0.9779647950   0.4691585433   0.8149512600
  0.4779647950   0.8024918767   0.8149512600
  0.9779647950   0.8024918767   0.8149512600
  0.0255258450   0.1997962200   0.1987773200
  0.5255258450   0.1997962200   0.1987773200
  0.0255258450   0.5331295533   0.1987773200
  0.5255258450   0.5331295533   0.1987773200
  0.0255258450   0.8664628867   0.1987773200
  0.5255258450   0.8664628867   0.1987773200
  0.2720352050   0.1975081233   0.1850487400
  0.7720352050   0.1975081233   0.1850487400
  0.2720352050   0.5308414567   0.1850487400
  0.7720352050   0.5308414567   0.1850487400
  0.2720352050   0.8641747900   0.1850487400
  0.7720352050   0.8641747900   0.1850487400
  0.1250000000   0.1666666667   1.0000000000
  0.6250000000   0.1666666667   1.0000000000
  0.1250000000   0.5000000000   1.0000000000
  0.6250000000   0.5000000000   1.0000000000
  0.1250000000   0.8333333333   1.0000000000
  0.6250000000   0.8333333333   1.0000000000
  0.3750000000   0.1666666667   0.0000000000
  0.8750000000   0.1666666667  -0.0000000000
  0.3750000000   0.5000000000   0.0000000000
  0.8750000000   0.5000000000  -0.0000000000
  0.3750000000   0.8333333333   0.0000000000
  0.8750000000   0.8333333333  -0.0000000000
  0.1761473750   0.2280980500   0.3685883000
  0.6761473750   0.2280980500   0.3685883000
  0.1761473750   0.5614313833   0.3685883000
  0.6761473750   0.5614313833   0.3685883000
  0.1761473750   0.8947647167   0.3685883000
  0.6761473750   0.8947647167   0.3685883000
  0.4154210650   0.2279364267   0.3676185500
  0.9154210650   0.2279364267   0.3676185500
  0.4154210650   0.5612697600   0.3676185500
  0.9154210650   0.5612697600   0.3676185500
  0.4154210650   0.8946030933   0.3676185500
  0.9154210650   0.8946030933   0.3676185500
  0.0738526250   0.1052352833   0.6314117000
  0.5738526250   0.1052352833   0.6314117000
  0.0738526250   0.4385686167   0.6314117000
  0.5738526250   0.4385686167   0.6314117000
  0.0738526250   0.7719019500   0.6314117000
  0.5738526250   0.7719019500   0.6314117000
  0.3345789350   0.1053969067   0.6323814500
  0.8345789350   0.1053969067   0.6323814500
  0.3345789350   0.4387302400   0.6323814500
  0.8345789350   0.4387302400   0.6323814500
  0.3345789350   0.7720635733   0.6323814500
  0.8345789350   0.7720635733   0.6323814500
  0.2252700300   0.3009334233   0.8056005300
  0.7252700300   0.3009334233   0.8056005300
  0.2252700300   0.6342667567   0.8056005300
  0.7252700300   0.6342667567   0.8056005300
  0.2252700300   0.9676000900   0.8056005300
  0.7252700300   0.9676000900   0.8056005300
  0.4761832400   0.3014335267   0.8086011600
  0.9761832400   0.3014335267   0.8086011600
  0.4761832400   0.6347668600   0.8086011600
  0.9761832400   0.6347668600   0.8086011600
  0.4761832400   0.9681001933   0.8086011600
  0.9761832400   0.9681001933   0.8086011600
  0.0247299700   0.0323999100   0.1943994700
  0.5247299700   0.0323999100   0.1943994700
  0.0247299700   0.3657332433   0.1943994700
  0.5247299700   0.3657332433   0.1943994700
  0.0247299700   0.6990665767   0.1943994700
  0.5247299700   0.6990665767   0.1943994700
  0.2738167600   0.0318998067   0.1913988400
  0.7738167600   0.0318998067   0.1913988400
  0.2738167600   0.3652331400   0.1913988400
  0.7738167600   0.3652331400   0.1913988400
  0.2738167600   0.6985664733   0.1913988400
  0.7738167600   0.6985664733   0.1913988400
