# Compound: Li36O18S36Fe36. Old comment: Fe2Li2OS2 supercell_04
  1.0000000000
 11.5765832400   0.0020662800  -0.0095429100
 -0.0019855200  11.5765998300  -0.0095429400
 -3.8476794200  -3.8490307200  12.7663591800
Li    O     S     Fe
   36    18    36    36
Direct
  0.1494002367   0.0164142055   0.0000071050
  0.4827335700   0.0172780167   0.0000071050
  0.8160669033   0.0172780167   0.0000071050
  0.1494002367   0.3506113500   0.0000071050
  0.4827335700   0.3506113500   0.0000071050
  0.8160669033   0.3506113500   0.0000071050
  0.1494002367   0.6839446833   0.0000071050
  0.4827335700   0.6839446833   0.0000071050
  0.8160669033   0.6839446833   0.0000071050
  0.1494002367   0.0172780167   0.5000071050
  0.4827335700   0.0172780167   0.5000071050
  0.8160669033   0.0172780167   0.5000071050
  0.1494002367   0.3506113500   0.5000071050
  0.4827335700   0.3506113500   0.5000071050
  0.8160669033   0.3506113500   0.5000071050
  0.1494002367   0.6839446833   0.5000071050
  0.4827335700   0.6839446833   0.5000071050
  0.8160669033   0.6839446833   0.5000071050
  0.3160553167   0.1839330967   0.4999928950
  0.6493886500   0.1839330967   0.4999928950
  0.9827219833   0.1839330967   0.4999928950
  0.3160553167   0.5172664300   0.4999928950
  0.6493886500   0.5172664300   0.4999928950
  0.9827219833   0.5172664300   0.4999928950
  0.3160553167   0.8505997633   0.4999928950
  0.6493886500   0.8505997633   0.4999928950
  0.9827219833   0.8505997633   0.4999928950
  0.3160553167   0.1839330967   0.9999928950
  0.6493886500   0.1839330967   0.9999928950
  0.9827219833   0.1839330967   0.9999928950
  0.3160553167   0.5172664300   0.9999928950
  0.6493886500   0.5172664300   0.9999928950
  0.9827219833   0.5172664300   0.9999928950
  0.3160553167   0.8505997633   0.9999928950
  0.6493886500   0.8505997633   0.9999928950
  0.9827219833   0.8505997633   0.9999928950
  0.3160628767   0.0172707933   1.0000000000
  0.6493962100   0.0172707933   1.0000000000
  0.9827295433   0.0172707933   1.0000000000
  0.3160628767   0.3506041267   1.0000000000
  0.6493962100   0.3506041267   1.0000000000
  0.9827295433   0.3506041267   1.0000000000
  0.3160628767   0.6839374600   1.0000000000
  0.6493962100   0.6839374600   1.0000000000
  0.9827295433   0.6839374600   1.0000000000
  0.3160628767   0.0172707933   0.5000000000
  0.6493962100   0.0172707933   0.5000000000
  0.9827295433   0.0172707933   0.5000000000
  0.3160628767   0.3506041267   0.5000000000
  0.6493962100   0.3506041267   0.5000000000
  0.9827295433   0.3506041267   0.5000000000
  0.3160628767   0.6839374600   0.5000000000
  0.6493962100   0.6839374600   0.5000000000
  0.9827295433   0.6839374600   0.5000000000
  0.1993405733   0.2338867767   0.1498377150
  0.5326739067   0.2338867767   0.1498377150
  0.8660072400   0.2338867767   0.1498377150
  0.1993405733   0.5672201100   0.1498377150
  0.5326739067   0.5672201100   0.1498377150
  0.8660072400   0.5672201100   0.1498377150
  0.1993405733   0.9005534433   0.1498377150
  0.5326739067   0.9005534433   0.1498377150
  0.8660072400   0.9005534433   0.1498377150
  0.1993405733   0.2338867767   0.6498377150
  0.5326739067   0.2338867767   0.6498377150
  0.8660072400   0.2338867767   0.6498377150
  0.1993405733   0.5672201100   0.6498377150
  0.5326739067   0.5672201100   0.6498377150
  0.8660072400   0.5672201100   0.6498377150
  0.1993405733   0.9005534433   0.6498377150
  0.5326739067   0.9005534433   0.6498377150
  0.8660072400   0.9005534433   0.6498377150
  0.0994465567   0.1339927600   0.3501622850
  0.4327798900   0.1339927600   0.3501622850
  0.7661132233   0.1339927600   0.3501622850
  0.0994465567   0.4673260933   0.3501622850
  0.4327798900   0.4673260933   0.3501622850
  0.7661132233   0.4673260933   0.3501622850
  0.0994465567   0.8006594267   0.3501622850
  0.4327798900   0.8006594267   0.3501622850
  0.7661132233   0.8006594267   0.3501622850
  0.0994465567   0.1339927600   0.8501622850
  0.4327798900   0.1339927600   0.8501622850
  0.7661132233   0.1339927600   0.8501622850
  0.0994465567   0.4673260933   0.8501622850
  0.4327798900   0.4673260933   0.8501622850
  0.7661132233   0.4673260933   0.8501622850
  0.0994465567   0.8006594267   0.8501622850
  0.4327798900   0.8006594267   0.8501622850
  0.7661132233   0.8006594267   0.8501622850
  0.0360320800   0.0705763033   0.1599003750
  0.3693654133   0.0705763033   0.1599003750
  0.7026987467   0.0705763033   0.1599003750
  0.0360320800   0.4039096367   0.1599003750
  0.3693654133   0.4039096367   0.1599003750
  0.7026987467   0.4039096367   0.1599003750
  0.0360320800   0.7372429700   0.1599003750
  0.3693654133   0.7372429700   0.1599003750
  0.7026987467   0.7372429700   0.1599003750
  0.0360320800   0.0705763033   0.6599003750
  0.3693654133   0.0705763033   0.6599003750
  0.7026987467   0.0705763033   0.6599003750
  0.0360320800   0.4039096367   0.6599003750
  0.3693654133   0.4039096367   0.6599003750
  0.7026987467   0.4039096367   0.6599003750
  0.0360320800   0.7372429700   0.6599003750
  0.3693654133   0.7372429700   0.6599003750
  0.7026987467   0.7372429700   0.6599003750
  0.2627570300   0.2973012533   0.3400996250
  0.5960903633   0.2973012533   0.3400996250
  0.9294236967   0.2973012533   0.3400996250
  0.2627570300   0.6306345867   0.3400996250
  0.5960903633   0.6306345867   0.3400996250
  0.9294236967   0.6306345867   0.3400996250
  0.2627570300   0.9639679200   0.3400996250
  0.5960903633   0.9639679200   0.3400996250
  0.9294236967   0.9639679200   0.3400996250
  0.2627570300   0.2973012533   0.8400996250
  0.5960903633   0.2973012533   0.8400996250
  0.9294236967   0.2973012533   0.8400996250
  0.2627570300   0.6306345867   0.8400996250
  0.5960903633   0.6306345867   0.8400996250
  0.9294236967   0.6306345867   0.8400996250
  0.2627570300   0.9639679200   0.8400996250
  0.5960903633   0.9639679200   0.8400996250
  0.9294236967   0.9639679200   0.8400996250
