# Compound: Li64Fe32S32O32. Old comment:
   1.00000000000000     
    15.3756371200000004    0.0000000000000000    0.0000000000000000
     0.0000000000000000   11.2475708399999998    0.0825900600000000
     0.0000000000000000    0.0847287000000000   11.2472779400000000
   Li   Fe   S    O 
    64    32    32    32
Direct
  0.1252568000000025  0.2755358799999996  0.4745398100000031
  0.6252568000000025  0.2755358799999996  0.4745398100000031
  0.1252568000000025  0.7755358799999996  0.4745398100000031
  0.6252568000000025  0.7755358799999996  0.4745398100000031
  0.1252568000000025  0.2755358799999996  0.9745398100000031
  0.6252568000000025  0.2755358799999996  0.9745398100000031
  0.1252568000000025  0.7755358799999996  0.9745398100000031
  0.6252568000000025  0.7755358799999996  0.9745398100000031
  0.1252568000000025  0.4744641200000004  0.2754601899999969
  0.6252568000000025  0.4744641200000004  0.2754601899999969
  0.1252568000000025  0.9744641200000004  0.2754601899999969
  0.6252568000000025  0.9744641200000004  0.2754601899999969
  0.1252568000000025  0.4744641200000004  0.7754601899999969
  0.6252568000000025  0.4744641200000004  0.7754601899999969
  0.1252568000000025  0.9744641200000004  0.7754601899999969
  0.6252568000000025  0.9744641200000004  0.7754601899999969
  0.3747431999999975  0.2244641200000004  0.0254601899999969
  0.8747431999999975  0.2244641200000004  0.0254601899999969
  0.3747431999999975  0.7244641200000004  0.0254601899999969
  0.8747431999999975  0.7244641200000004  0.0254601899999969
  0.3747431999999975  0.2244641200000004  0.5254601899999969
  0.8747431999999975  0.2244641200000004  0.5254601899999969
  0.3747431999999975  0.7244641200000004  0.5254601899999969
  0.8747431999999975  0.7244641200000004  0.5254601899999969
  0.3747431999999975  0.0255358799999996  0.2245398100000031
  0.8747431999999975  0.0255358799999996  0.2245398100000031
  0.3747431999999975  0.5255358799999996  0.2245398100000031
  0.8747431999999975  0.5255358799999996  0.2245398100000031
  0.3747431999999975  0.0255358799999996  0.7245398100000031
  0.8747431999999975  0.0255358799999996  0.7245398100000031
  0.3747431999999975  0.5255358799999996  0.7245398100000031
  0.8747431999999975  0.5255358799999996  0.7245398100000031
  0.2760023599999997  0.3750000000000000  0.3750000000000000
  0.7760023599999997  0.3750000000000000  0.3750000000000000
  0.2760023599999997  0.8750000000000000  0.3750000000000000
  0.7760023599999997  0.8750000000000000  0.3750000000000000
  0.2760023599999997  0.3750000000000000  0.8750000000000000
  0.7760023599999997  0.3750000000000000  0.8750000000000000
  0.2760023599999997  0.8750000000000000  0.8750000000000000
  0.7760023599999997  0.8750000000000000  0.8750000000000000
  0.2239976400000003  0.1250000000000000  0.1250000000000000
  0.7239976400000003  0.1250000000000000  0.1250000000000000
  0.2239976400000003  0.6250000000000000  0.1250000000000000
  0.7239976400000003  0.6250000000000000  0.1250000000000000
  0.2239976400000003  0.1250000000000000  0.6250000000000000
  0.7239976400000003  0.1250000000000000  0.6250000000000000
  0.2239976400000003  0.6250000000000000  0.6250000000000000
  0.7239976400000003  0.6250000000000000  0.6250000000000000
  0.4999407250000019  0.3750000000000000  0.1250000000000000
  0.9999407250000019  0.3750000000000000  0.1250000000000000
  0.4999407250000019  0.8750000000000000  0.1250000000000000
  0.9999407250000019  0.8750000000000000  0.1250000000000000
  0.4999407250000019  0.3750000000000000  0.6250000000000000
  0.9999407250000019  0.3750000000000000  0.6250000000000000
  0.4999407250000019  0.8750000000000000  0.6250000000000000
  0.9999407250000019  0.8750000000000000  0.6250000000000000
  0.0000592749999981  0.1250000000000000  0.3750000000000000
  0.5000592749999981  0.1250000000000000  0.3750000000000000
  0.0000592749999981  0.6250000000000000  0.3750000000000000
  0.5000592749999981  0.6250000000000000  0.3750000000000000
  0.0000592749999981  0.1250000000000000  0.8750000000000000
  0.5000592749999981  0.1250000000000000  0.8750000000000000
  0.0000592749999981  0.6250000000000000  0.8750000000000000
  0.5000592749999981  0.6250000000000000  0.8750000000000000
  0.4791290450000005  0.3750000000000000  0.3750000000000000
  0.9791290450000005  0.3750000000000000  0.3750000000000000
  0.4791290450000005  0.8750000000000000  0.3750000000000000
  0.9791290450000005  0.8750000000000000  0.3750000000000000
  0.4791290450000005  0.3750000000000000  0.8750000000000000
  0.9791290450000005  0.3750000000000000  0.8750000000000000
  0.4791290450000005  0.8750000000000000  0.8750000000000000
  0.9791290450000005  0.8750000000000000  0.8750000000000000
  0.0208709549999995  0.1250000000000000  0.1250000000000000
  0.5208709549999995  0.1250000000000000  0.1250000000000000
  0.0208709549999995  0.6250000000000000  0.1250000000000000
  0.5208709549999995  0.6250000000000000  0.1250000000000000
  0.0208709549999995  0.1250000000000000  0.6250000000000000
  0.5208709549999995  0.1250000000000000  0.6250000000000000
  0.0208709549999995  0.6250000000000000  0.6250000000000000
  0.5208709549999995  0.6250000000000000  0.6250000000000000
  0.2500348650000035  0.3750000000000000  0.1250000000000000
  0.7500348650000035  0.3750000000000000  0.1250000000000000
  0.2500348650000035  0.8750000000000000  0.1250000000000000
  0.7500348650000035  0.8750000000000000  0.1250000000000000
  0.2500348650000035  0.3750000000000000  0.6250000000000000
  0.7500348650000035  0.3750000000000000  0.6250000000000000
  0.2500348650000035  0.8750000000000000  0.6250000000000000
  0.7500348650000035  0.8750000000000000  0.6250000000000000
  0.2499651349999965  0.1250000000000000  0.3750000000000000
  0.7499651349999965  0.1250000000000000  0.3750000000000000
  0.2499651349999965  0.6250000000000000  0.3750000000000000
  0.7499651349999965  0.6250000000000000  0.3750000000000000
  0.2499651349999965  0.1250000000000000  0.8750000000000000
  0.7499651349999965  0.1250000000000000  0.8750000000000000
  0.2499651349999965  0.6250000000000000  0.8750000000000000
  0.7499651349999965  0.6250000000000000  0.8750000000000000
  0.1254690649999972  0.4995988100000019  0.4995895550000000
  0.6254690649999972  0.4995988100000019  0.4995895550000000
  0.1254690649999972  0.9995988100000019  0.4995895550000000
  0.6254690649999972  0.9995988100000019  0.4995895550000000
  0.1254690649999972  0.4995988100000019  0.9995895550000000
  0.6254690649999972  0.4995988100000019  0.9995895550000000
  0.1254690649999972  0.9995988100000019  0.9995895550000000
  0.6254690649999972  0.9995988100000019  0.9995895550000000
  0.1254690649999972  0.2504011899999981  0.2504104450000000
  0.6254690649999972  0.2504011899999981  0.2504104450000000
  0.1254690649999972  0.7504011899999981  0.2504104450000000
  0.6254690649999972  0.7504011899999981  0.2504104450000000
  0.1254690649999972  0.2504011899999981  0.7504104450000000
  0.6254690649999972  0.2504011899999981  0.7504104450000000
  0.1254690649999972  0.7504011899999981  0.7504104450000000
  0.6254690649999972  0.7504011899999981  0.7504104450000000
  0.3745309350000028  0.0004011899999981  0.0004104450000000
  0.8745309350000028  0.0004011899999981  0.0004104450000000
  0.3745309350000028  0.5004011899999981  0.0004104450000000
  0.8745309350000028  0.5004011899999981  0.0004104450000000
  0.3745309350000028  0.0004011899999981  0.5004104450000000
  0.8745309350000028  0.0004011899999981  0.5004104450000000
  0.3745309350000028  0.5004011899999981  0.5004104450000000
  0.8745309350000028  0.5004011899999981  0.5004104450000000
  0.3745309350000028  0.2495988100000019  0.2495895550000000
  0.8745309350000028  0.2495988100000019  0.2495895550000000
  0.3745309350000028  0.7495988100000019  0.2495895550000000
  0.8745309350000028  0.7495988100000019  0.2495895550000000
  0.3745309350000028  0.2495988100000019  0.7495895550000000
  0.8745309350000028  0.2495988100000019  0.7495895550000000
  0.3745309350000028  0.7495988100000019  0.7495895550000000
  0.8745309350000028  0.7495988100000019  0.7495895550000000
  0.0000000000000000  0.2500000000000000  0.0000000000000000
  0.5000000000000000  0.2500000000000000  0.0000000000000000
  0.0000000000000000  0.7500000000000000  0.0000000000000000
  0.5000000000000000  0.7500000000000000  0.0000000000000000
  0.0000000000000000  0.2500000000000000  0.5000000000000000
  0.5000000000000000  0.2500000000000000  0.5000000000000000
  0.0000000000000000  0.7500000000000000  0.5000000000000000
  0.5000000000000000  0.7500000000000000  0.5000000000000000
  0.0000000000000000  0.0000000000000000  0.2500000000000000
  0.5000000000000000  0.0000000000000000  0.2500000000000000
  0.0000000000000000  0.5000000000000000  0.2500000000000000
  0.5000000000000000  0.5000000000000000  0.2500000000000000
  0.0000000000000000  0.0000000000000000  0.7500000000000000
  0.5000000000000000  0.0000000000000000  0.7500000000000000
  0.0000000000000000  0.5000000000000000  0.7500000000000000
  0.5000000000000000  0.5000000000000000  0.7500000000000000
  0.2500000000000000  0.2500000000000000  0.0008890788000002
  0.7500000000000000  0.2500000000000000  0.0000000000000000
  0.2500000000000000  0.7500000000000000  0.0000000000000000
  0.7500000000000000  0.7500000000000000  0.0000000000000000
  0.2500000000000000  0.2500000000000000  0.5000000000000000
  0.7500000000000000  0.2500000000000000  0.5000000000000000
  0.2500000000000000  0.7500000000000000  0.5000000000000000
  0.7500000000000000  0.7500000000000000  0.5000000000000000
  0.2500000000000000  0.0000000000000000  0.2500000000000000
  0.7500000000000000  0.0000000000000000  0.2500000000000000
  0.2500000000000000  0.5000000000000000  0.2500000000000000
  0.7500000000000000  0.5000000000000000  0.2500000000000000
  0.2500000000000000  0.0000000000000000  0.7500000000000000
  0.7500000000000000  0.0000000000000000  0.7500000000000000
  0.2500000000000000  0.5000000000000000  0.7500000000000000
  0.7500000000000000  0.5000000000000000  0.7500000000000000
 
  0.00000000E+00  0.00000000E+00  0.00000000E+00
  0.00000000E+00  0.00000000E+00  0.00000000E+00
  0.00000000E+00  0.00000000E+00  0.00000000E+00
  0.00000000E+00  0.00000000E+00  0.00000000E+00
  0.00000000E+00  0.00000000E+00  0.00000000E+00
  0.00000000E+00  0.00000000E+00  0.00000000E+00
  0.00000000E+00  0.00000000E+00  0.00000000E+00
  0.00000000E+00  0.00000000E+00  0.00000000E+00
  0.00000000E+00  0.00000000E+00  0.00000000E+00
  0.00000000E+00  0.00000000E+00  0.00000000E+00
  0.00000000E+00  0.00000000E+00  0.00000000E+00
  0.00000000E+00  0.00000000E+00  0.00000000E+00
  0.00000000E+00  0.00000000E+00  0.00000000E+00
  0.00000000E+00  0.00000000E+00  0.00000000E+00
  0.00000000E+00  0.00000000E+00  0.00000000E+00
  0.00000000E+00  0.00000000E+00  0.00000000E+00
  0.00000000E+00  0.00000000E+00  0.00000000E+00
  0.00000000E+00  0.00000000E+00  0.00000000E+00
  0.00000000E+00  0.00000000E+00  0.00000000E+00
  0.00000000E+00  0.00000000E+00  0.00000000E+00
  0.00000000E+00  0.00000000E+00  0.00000000E+00
  0.00000000E+00  0.00000000E+00  0.00000000E+00
  0.00000000E+00  0.00000000E+00  0.00000000E+00
  0.00000000E+00  0.00000000E+00  0.00000000E+00
  0.00000000E+00  0.00000000E+00  0.00000000E+00
  0.00000000E+00  0.00000000E+00  0.00000000E+00
  0.00000000E+00  0.00000000E+00  0.00000000E+00
  0.00000000E+00  0.00000000E+00  0.00000000E+00
  0.00000000E+00  0.00000000E+00  0.00000000E+00
  0.00000000E+00  0.00000000E+00  0.00000000E+00
  0.00000000E+00  0.00000000E+00  0.00000000E+00
  0.00000000E+00  0.00000000E+00  0.00000000E+00
  0.00000000E+00  0.00000000E+00  0.00000000E+00
  0.00000000E+00  0.00000000E+00  0.00000000E+00
  0.00000000E+00  0.00000000E+00  0.00000000E+00
  0.00000000E+00  0.00000000E+00  0.00000000E+00
  0.00000000E+00  0.00000000E+00  0.00000000E+00
  0.00000000E+00  0.00000000E+00  0.00000000E+00
  0.00000000E+00  0.00000000E+00  0.00000000E+00
  0.00000000E+00  0.00000000E+00  0.00000000E+00
  0.00000000E+00  0.00000000E+00  0.00000000E+00
  0.00000000E+00  0.00000000E+00  0.00000000E+00
  0.00000000E+00  0.00000000E+00  0.00000000E+00
  0.00000000E+00  0.00000000E+00  0.00000000E+00
  0.00000000E+00  0.00000000E+00  0.00000000E+00
  0.00000000E+00  0.00000000E+00  0.00000000E+00
  0.00000000E+00  0.00000000E+00  0.00000000E+00
  0.00000000E+00  0.00000000E+00  0.00000000E+00
  0.00000000E+00  0.00000000E+00  0.00000000E+00
  0.00000000E+00  0.00000000E+00  0.00000000E+00
  0.00000000E+00  0.00000000E+00  0.00000000E+00
  0.00000000E+00  0.00000000E+00  0.00000000E+00
  0.00000000E+00  0.00000000E+00  0.00000000E+00
  0.00000000E+00  0.00000000E+00  0.00000000E+00
  0.00000000E+00  0.00000000E+00  0.00000000E+00
  0.00000000E+00  0.00000000E+00  0.00000000E+00
  0.00000000E+00  0.00000000E+00  0.00000000E+00
  0.00000000E+00  0.00000000E+00  0.00000000E+00
  0.00000000E+00  0.00000000E+00  0.00000000E+00
  0.00000000E+00  0.00000000E+00  0.00000000E+00
  0.00000000E+00  0.00000000E+00  0.00000000E+00
  0.00000000E+00  0.00000000E+00  0.00000000E+00
  0.00000000E+00  0.00000000E+00  0.00000000E+00
  0.00000000E+00  0.00000000E+00  0.00000000E+00
  0.00000000E+00  0.00000000E+00  0.00000000E+00
  0.00000000E+00  0.00000000E+00  0.00000000E+00
  0.00000000E+00  0.00000000E+00  0.00000000E+00
  0.00000000E+00  0.00000000E+00  0.00000000E+00
  0.00000000E+00  0.00000000E+00  0.00000000E+00
  0.00000000E+00  0.00000000E+00  0.00000000E+00
  0.00000000E+00  0.00000000E+00  0.00000000E+00
  0.00000000E+00  0.00000000E+00  0.00000000E+00
  0.00000000E+00  0.00000000E+00  0.00000000E+00
  0.00000000E+00  0.00000000E+00  0.00000000E+00
  0.00000000E+00  0.00000000E+00  0.00000000E+00
  0.00000000E+00  0.00000000E+00  0.00000000E+00
  0.00000000E+00  0.00000000E+00  0.00000000E+00
  0.00000000E+00  0.00000000E+00  0.00000000E+00
  0.00000000E+00  0.00000000E+00  0.00000000E+00
  0.00000000E+00  0.00000000E+00  0.00000000E+00
  0.00000000E+00  0.00000000E+00  0.00000000E+00
  0.00000000E+00  0.00000000E+00  0.00000000E+00
  0.00000000E+00  0.00000000E+00  0.00000000E+00
  0.00000000E+00  0.00000000E+00  0.00000000E+00
  0.00000000E+00  0.00000000E+00  0.00000000E+00
  0.00000000E+00  0.00000000E+00  0.00000000E+00
  0.00000000E+00  0.00000000E+00  0.00000000E+00
  0.00000000E+00  0.00000000E+00  0.00000000E+00
  0.00000000E+00  0.00000000E+00  0.00000000E+00
  0.00000000E+00  0.00000000E+00  0.00000000E+00
  0.00000000E+00  0.00000000E+00  0.00000000E+00
  0.00000000E+00  0.00000000E+00  0.00000000E+00
  0.00000000E+00  0.00000000E+00  0.00000000E+00
  0.00000000E+00  0.00000000E+00  0.00000000E+00
  0.00000000E+00  0.00000000E+00  0.00000000E+00
  0.00000000E+00  0.00000000E+00  0.00000000E+00
  0.00000000E+00  0.00000000E+00  0.00000000E+00
  0.00000000E+00  0.00000000E+00  0.00000000E+00
  0.00000000E+00  0.00000000E+00  0.00000000E+00
  0.00000000E+00  0.00000000E+00  0.00000000E+00
  0.00000000E+00  0.00000000E+00  0.00000000E+00
  0.00000000E+00  0.00000000E+00  0.00000000E+00
  0.00000000E+00  0.00000000E+00  0.00000000E+00
  0.00000000E+00  0.00000000E+00  0.00000000E+00
  0.00000000E+00  0.00000000E+00  0.00000000E+00
  0.00000000E+00  0.00000000E+00  0.00000000E+00
  0.00000000E+00  0.00000000E+00  0.00000000E+00
  0.00000000E+00  0.00000000E+00  0.00000000E+00
  0.00000000E+00  0.00000000E+00  0.00000000E+00
  0.00000000E+00  0.00000000E+00  0.00000000E+00
  0.00000000E+00  0.00000000E+00  0.00000000E+00
  0.00000000E+00  0.00000000E+00  0.00000000E+00
  0.00000000E+00  0.00000000E+00  0.00000000E+00
  0.00000000E+00  0.00000000E+00  0.00000000E+00
  0.00000000E+00  0.00000000E+00  0.00000000E+00
  0.00000000E+00  0.00000000E+00  0.00000000E+00
  0.00000000E+00  0.00000000E+00  0.00000000E+00
  0.00000000E+00  0.00000000E+00  0.00000000E+00
  0.00000000E+00  0.00000000E+00  0.00000000E+00
  0.00000000E+00  0.00000000E+00  0.00000000E+00
  0.00000000E+00  0.00000000E+00  0.00000000E+00
  0.00000000E+00  0.00000000E+00  0.00000000E+00
  0.00000000E+00  0.00000000E+00  0.00000000E+00
  0.00000000E+00  0.00000000E+00  0.00000000E+00
  0.00000000E+00  0.00000000E+00  0.00000000E+00
  0.00000000E+00  0.00000000E+00  0.00000000E+00
  0.00000000E+00  0.00000000E+00  0.00000000E+00
  0.00000000E+00  0.00000000E+00  0.00000000E+00
  0.00000000E+00  0.00000000E+00  0.00000000E+00
  0.00000000E+00  0.00000000E+00  0.00000000E+00
  0.00000000E+00  0.00000000E+00  0.00000000E+00
  0.00000000E+00  0.00000000E+00  0.00000000E+00
  0.00000000E+00  0.00000000E+00  0.00000000E+00
  0.00000000E+00  0.00000000E+00  0.00000000E+00
  0.00000000E+00  0.00000000E+00  0.00000000E+00
  0.00000000E+00  0.00000000E+00  0.00000000E+00
  0.00000000E+00  0.00000000E+00  0.00000000E+00
  0.00000000E+00  0.00000000E+00  0.00000000E+00
  0.00000000E+00  0.00000000E+00  0.00000000E+00
  0.00000000E+00  0.00000000E+00  0.00000000E+00
  0.00000000E+00  0.00000000E+00  0.00000000E+00
  0.00000000E+00  0.00000000E+00  0.00000000E+00
  0.00000000E+00  0.00000000E+00  0.00000000E+00
  0.00000000E+00  0.00000000E+00  0.00000000E+00
  0.00000000E+00  0.00000000E+00  0.00000000E+00
  0.00000000E+00  0.00000000E+00  0.00000000E+00
  0.00000000E+00  0.00000000E+00  0.00000000E+00
  0.00000000E+00  0.00000000E+00  0.00000000E+00
  0.00000000E+00  0.00000000E+00  0.00000000E+00
  0.00000000E+00  0.00000000E+00  0.00000000E+00
  0.00000000E+00  0.00000000E+00  0.00000000E+00
  0.00000000E+00  0.00000000E+00  0.00000000E+00
  0.00000000E+00  0.00000000E+00  0.00000000E+00
  0.00000000E+00  0.00000000E+00  0.00000000E+00
  0.00000000E+00  0.00000000E+00  0.00000000E+00
  0.00000000E+00  0.00000000E+00  0.00000000E+00
  0.00000000E+00  0.00000000E+00  0.00000000E+00
  0.00000000E+00  0.00000000E+00  0.00000000E+00
  0.00000000E+00  0.00000000E+00  0.00000000E+00
  0.00000000E+00  0.00000000E+00  0.00000000E+00
