# Compound: Li24O24S24Fe36. Old comment:
   1.00000000000000     
    11.5103684699999995    0.0000000000000000    0.0000000000000000
     0.0000000000000000   11.3267091600000001    0.1254894000000000
     0.0000000000000000   -0.2968315200000000   11.3235144400000003
   Li   O    S    Fe
    24    24    24    36
Direct
  0.1051329467000031  0.2500000000000000  0.0000000000000000
  0.4384662800000001  0.2500000000000000  0.0000000000000000
  0.7717996132999971  0.2500000000000000  0.0000000000000000
  0.1051329467000031  0.7500000000000000  0.0000000000000000
  0.4384662800000001  0.7500000000000000  0.0000000000000000
  0.7717996132999971  0.7500000000000000  0.0000000000000000
  0.1051329467000031  0.2500000000000000  0.5000000000000000
  0.4384662800000001  0.2500000000000000  0.5000000000000000
  0.7717996132999971  0.2500000000000000  0.5000000000000000
  0.1051329467000031  0.7500000000000000  0.5000000000000000
  0.4384662800000001  0.7500000000000000  0.5000000000000000
  0.7717996132999971  0.7500000000000000  0.5000000000000000
  0.1051329467000031  0.0000000000000000  0.2500000000000000
  0.4384662800000001  0.0000000000000000  0.2500000000000000
  0.7717996132999971  0.0000000000000000  0.2500000000000000
  0.1051329467000031  0.5000000000000000  0.2500000000000000
  0.4384662800000001  0.5000000000000000  0.2500000000000000
  0.7717996132999971  0.5000000000000000  0.2500000000000000
  0.1051329467000031  0.0000000000000000  0.7500000000000000
  0.4384662800000001  0.0000000000000000  0.7500000000000000
  0.7717996132999971  0.0000000000000000  0.7500000000000000
  0.1051329467000031  0.5000000000000000  0.7500000000000000
  0.4384662800000001  0.5000000000000000  0.7500000000000000
  0.7717996132999971  0.5000000000000000  0.7500000000000000
  0.1061490566999979  0.1252766249999979  0.3747233750000021
  0.4394823900000020  0.1252766249999979  0.3747233750000021
  0.7728157232999990  0.1252766249999979  0.3747233750000021
  0.1061490566999979  0.6252766249999979  0.3747233750000021
  0.4394823900000020  0.6252766249999979  0.3747233750000021
  0.7728157232999990  0.6252766249999979  0.3747233750000021
  0.1061490566999979  0.1252766249999979  0.8747233750000021
  0.4394823900000020  0.1252766249999979  0.8747233750000021
  0.7728157232999990  0.1252766249999979  0.8747233750000021
  0.1061490566999979  0.6252766249999979  0.8747233750000021
  0.4394823900000020  0.6252766249999979  0.8747233750000021
  0.7728157232999990  0.6252766249999979  0.8747233750000021
  0.1061490566999979  0.3747233750000021  0.1252766249999979
  0.4394823900000020  0.3747233750000021  0.1252766249999979
  0.7728157232999990  0.3747233750000021  0.1252766249999979
  0.1061490566999979  0.8747233750000021  0.1252766249999979
  0.4394823900000020  0.8747233750000021  0.1252766249999979
  0.7728157232999990  0.8747233750000021  0.1252766249999979
  0.1061490566999979  0.3747233750000021  0.6252766249999979
  0.4394823900000020  0.3747233750000021  0.6252766249999979
  0.7728157232999990  0.3747233750000021  0.6252766249999979
  0.1061490566999979  0.8747233750000021  0.6252766249999979
  0.4394823900000020  0.8747233750000021  0.6252766249999979
  0.7728157232999990  0.8747233750000021  0.6252766249999979
  0.2727988433000021  0.1180947149999980  0.1180947149999980
  0.6061321767000010  0.1180947149999980  0.1180947149999980
  0.9394655099999980  0.1180947149999980  0.1180947149999980
  0.2727988433000021  0.6180947149999980  0.1180947149999980
  0.6061321767000010  0.6180947149999980  0.1180947149999980
  0.9394655099999980  0.6180947149999980  0.1180947149999980
  0.2727988433000021  0.1180947149999980  0.6180947149999980
  0.6061321767000010  0.1180947149999980  0.6180947149999980
  0.9394655099999980  0.1180947149999980  0.6180947149999980
  0.2727988433000021  0.6180947149999980  0.6180947149999980
  0.6061321767000010  0.6180947149999980  0.6180947149999980
  0.9394655099999980  0.6180947149999980  0.6180947149999980
  0.2727988433000021  0.3819052850000020  0.3819052850000020
  0.6061321767000010  0.3819052850000020  0.3819052850000020
  0.9394655099999980  0.3819052850000020  0.3819052850000020
  0.2727988433000021  0.8819052850000020  0.3819052850000020
  0.6061321767000010  0.8819052850000020  0.3819052850000020
  0.9394655099999980  0.8819052850000020  0.3819052850000020
  0.2727988433000021  0.3819052850000020  0.8819052850000020
  0.6061321767000010  0.3819052850000020  0.8819052850000020
  0.9394655099999980  0.3819052850000020  0.8819052850000020
  0.2727988433000021  0.8819052850000020  0.8819052850000020
  0.6061321767000010  0.8819052850000020  0.8819052850000020
  0.9394655099999980  0.8819052850000020  0.8819052850000020
  0.2728715100000016  0.3399570847999982  0.1609257300000024
  0.6062048432999987  0.3390742699999976  0.1609257300000024
  0.9395381766999975  0.3390742699999976  0.1609257300000024
  0.2728715100000016  0.8390742699999976  0.1609257300000024
  0.6062048432999987  0.8390742699999976  0.1609257300000024
  0.9395381766999975  0.8390742699999976  0.1609257300000024
  0.2728715100000016  0.3390742699999976  0.6609257300000024
  0.6062048432999987  0.3390742699999976  0.6609257300000024
  0.9395381766999975  0.3390742699999976  0.6609257300000024
  0.2728715100000016  0.8390742699999976  0.6609257300000024
  0.6062048432999987  0.8390742699999976  0.6609257300000024
  0.9395381766999975  0.8390742699999976  0.6609257300000024
  0.2728715100000016  0.1609257300000024  0.3390742699999976
  0.6062048432999987  0.1609257300000024  0.3390742699999976
  0.9395381766999975  0.1609257300000024  0.3390742699999976
  0.2728715100000016  0.6609257300000024  0.3390742699999976
  0.6062048432999987  0.6609257300000024  0.3390742699999976
  0.9395381766999975  0.6609257300000024  0.3390742699999976
  0.2728715100000016  0.1609257300000024  0.8390742699999976
  0.6062048432999987  0.1609257300000024  0.8390742699999976
  0.9395381766999975  0.1609257300000024  0.8390742699999976
  0.2728715100000016  0.6609257300000024  0.8390742699999976
  0.6062048432999987  0.6609257300000024  0.8390742699999976
  0.9395381766999975  0.6609257300000024  0.8390742699999976
  0.1073112899999984  0.0000000000000000  0.0000000000000000
  0.4406446233000025  0.0000000000000000  0.0000000000000000
  0.7739779567000014  0.0000000000000000  0.0000000000000000
  0.1073112899999984  0.5000000000000000  0.0000000000000000
  0.4406446233000025  0.5000000000000000  0.0000000000000000
  0.7739779567000014  0.5000000000000000  0.0000000000000000
  0.1073112899999984  0.0000000000000000  0.5000000000000000
  0.4406446233000025  0.0000000000000000  0.5000000000000000
  0.7739779567000014  0.0000000000000000  0.5000000000000000
  0.1073112899999984  0.5000000000000000  0.5000000000000000
  0.4406446233000025  0.5000000000000000  0.5000000000000000
  0.7739779567000014  0.5000000000000000  0.5000000000000000
 
  0.00000000E+00  0.00000000E+00  0.00000000E+00
  0.00000000E+00  0.00000000E+00  0.00000000E+00
  0.00000000E+00  0.00000000E+00  0.00000000E+00
  0.00000000E+00  0.00000000E+00  0.00000000E+00
  0.00000000E+00  0.00000000E+00  0.00000000E+00
  0.00000000E+00  0.00000000E+00  0.00000000E+00
  0.00000000E+00  0.00000000E+00  0.00000000E+00
  0.00000000E+00  0.00000000E+00  0.00000000E+00
  0.00000000E+00  0.00000000E+00  0.00000000E+00
  0.00000000E+00  0.00000000E+00  0.00000000E+00
  0.00000000E+00  0.00000000E+00  0.00000000E+00
  0.00000000E+00  0.00000000E+00  0.00000000E+00
  0.00000000E+00  0.00000000E+00  0.00000000E+00
  0.00000000E+00  0.00000000E+00  0.00000000E+00
  0.00000000E+00  0.00000000E+00  0.00000000E+00
  0.00000000E+00  0.00000000E+00  0.00000000E+00
  0.00000000E+00  0.00000000E+00  0.00000000E+00
  0.00000000E+00  0.00000000E+00  0.00000000E+00
  0.00000000E+00  0.00000000E+00  0.00000000E+00
  0.00000000E+00  0.00000000E+00  0.00000000E+00
  0.00000000E+00  0.00000000E+00  0.00000000E+00
  0.00000000E+00  0.00000000E+00  0.00000000E+00
  0.00000000E+00  0.00000000E+00  0.00000000E+00
  0.00000000E+00  0.00000000E+00  0.00000000E+00
  0.00000000E+00  0.00000000E+00  0.00000000E+00
  0.00000000E+00  0.00000000E+00  0.00000000E+00
  0.00000000E+00  0.00000000E+00  0.00000000E+00
  0.00000000E+00  0.00000000E+00  0.00000000E+00
  0.00000000E+00  0.00000000E+00  0.00000000E+00
  0.00000000E+00  0.00000000E+00  0.00000000E+00
  0.00000000E+00  0.00000000E+00  0.00000000E+00
  0.00000000E+00  0.00000000E+00  0.00000000E+00
  0.00000000E+00  0.00000000E+00  0.00000000E+00
  0.00000000E+00  0.00000000E+00  0.00000000E+00
  0.00000000E+00  0.00000000E+00  0.00000000E+00
  0.00000000E+00  0.00000000E+00  0.00000000E+00
  0.00000000E+00  0.00000000E+00  0.00000000E+00
  0.00000000E+00  0.00000000E+00  0.00000000E+00
  0.00000000E+00  0.00000000E+00  0.00000000E+00
  0.00000000E+00  0.00000000E+00  0.00000000E+00
  0.00000000E+00  0.00000000E+00  0.00000000E+00
  0.00000000E+00  0.00000000E+00  0.00000000E+00
  0.00000000E+00  0.00000000E+00  0.00000000E+00
  0.00000000E+00  0.00000000E+00  0.00000000E+00
  0.00000000E+00  0.00000000E+00  0.00000000E+00
  0.00000000E+00  0.00000000E+00  0.00000000E+00
  0.00000000E+00  0.00000000E+00  0.00000000E+00
  0.00000000E+00  0.00000000E+00  0.00000000E+00
  0.00000000E+00  0.00000000E+00  0.00000000E+00
  0.00000000E+00  0.00000000E+00  0.00000000E+00
  0.00000000E+00  0.00000000E+00  0.00000000E+00
  0.00000000E+00  0.00000000E+00  0.00000000E+00
  0.00000000E+00  0.00000000E+00  0.00000000E+00
  0.00000000E+00  0.00000000E+00  0.00000000E+00
  0.00000000E+00  0.00000000E+00  0.00000000E+00
  0.00000000E+00  0.00000000E+00  0.00000000E+00
  0.00000000E+00  0.00000000E+00  0.00000000E+00
  0.00000000E+00  0.00000000E+00  0.00000000E+00
  0.00000000E+00  0.00000000E+00  0.00000000E+00
  0.00000000E+00  0.00000000E+00  0.00000000E+00
  0.00000000E+00  0.00000000E+00  0.00000000E+00
  0.00000000E+00  0.00000000E+00  0.00000000E+00
  0.00000000E+00  0.00000000E+00  0.00000000E+00
  0.00000000E+00  0.00000000E+00  0.00000000E+00
  0.00000000E+00  0.00000000E+00  0.00000000E+00
  0.00000000E+00  0.00000000E+00  0.00000000E+00
  0.00000000E+00  0.00000000E+00  0.00000000E+00
  0.00000000E+00  0.00000000E+00  0.00000000E+00
  0.00000000E+00  0.00000000E+00  0.00000000E+00
  0.00000000E+00  0.00000000E+00  0.00000000E+00
  0.00000000E+00  0.00000000E+00  0.00000000E+00
  0.00000000E+00  0.00000000E+00  0.00000000E+00
  0.00000000E+00  0.00000000E+00  0.00000000E+00
  0.00000000E+00  0.00000000E+00  0.00000000E+00
  0.00000000E+00  0.00000000E+00  0.00000000E+00
  0.00000000E+00  0.00000000E+00  0.00000000E+00
  0.00000000E+00  0.00000000E+00  0.00000000E+00
  0.00000000E+00  0.00000000E+00  0.00000000E+00
  0.00000000E+00  0.00000000E+00  0.00000000E+00
  0.00000000E+00  0.00000000E+00  0.00000000E+00
  0.00000000E+00  0.00000000E+00  0.00000000E+00
  0.00000000E+00  0.00000000E+00  0.00000000E+00
  0.00000000E+00  0.00000000E+00  0.00000000E+00
  0.00000000E+00  0.00000000E+00  0.00000000E+00
  0.00000000E+00  0.00000000E+00  0.00000000E+00
  0.00000000E+00  0.00000000E+00  0.00000000E+00
  0.00000000E+00  0.00000000E+00  0.00000000E+00
  0.00000000E+00  0.00000000E+00  0.00000000E+00
  0.00000000E+00  0.00000000E+00  0.00000000E+00
  0.00000000E+00  0.00000000E+00  0.00000000E+00
  0.00000000E+00  0.00000000E+00  0.00000000E+00
  0.00000000E+00  0.00000000E+00  0.00000000E+00
  0.00000000E+00  0.00000000E+00  0.00000000E+00
  0.00000000E+00  0.00000000E+00  0.00000000E+00
  0.00000000E+00  0.00000000E+00  0.00000000E+00
  0.00000000E+00  0.00000000E+00  0.00000000E+00
  0.00000000E+00  0.00000000E+00  0.00000000E+00
  0.00000000E+00  0.00000000E+00  0.00000000E+00
  0.00000000E+00  0.00000000E+00  0.00000000E+00
  0.00000000E+00  0.00000000E+00  0.00000000E+00
  0.00000000E+00  0.00000000E+00  0.00000000E+00
  0.00000000E+00  0.00000000E+00  0.00000000E+00
  0.00000000E+00  0.00000000E+00  0.00000000E+00
  0.00000000E+00  0.00000000E+00  0.00000000E+00
  0.00000000E+00  0.00000000E+00  0.00000000E+00
  0.00000000E+00  0.00000000E+00  0.00000000E+00
  0.00000000E+00  0.00000000E+00  0.00000000E+00
  0.00000000E+00  0.00000000E+00  0.00000000E+00
