# Compound: Li2OS2Fe2. Old comment: LFSO-Li2Fe2S2O-201022-042623-e6d3a9 RELAXED NIGGLI HIGH SPEC RELAXED
  1.0000000000
  3.8588610800   0.0006887600  -0.0031809700
 -0.0006618400   3.8588666100  -0.0031809800
 -1.9238397100  -1.9245153600   6.3831795900
Li    O     S     Fe
    2     1     2     2
Direct
  0.4482007100   0.0518340500   0.0000142100
  0.9481659500   0.5517992900   0.9999857900
  0.9481886300   0.0518123800  -0.0000000000
  0.5980217200   0.7016603300   0.2996754300
  0.2983396700   0.4019782800   0.7003245700
  0.1080962400   0.2117289100   0.3198007500
  0.7882710900   0.8919037600   0.6801992500
