# Compound: Li128Fe64S64O64. Old comment
   1.00000000000000     
    15.8906492000000004    0.0000000000000000    0.0000000000000000
     0.0000000000000000   15.8906492000000004    0.0000000000000000
     0.0000000000000000    0.0000000000000000   15.4145542599999992
   Li   Fe   S    O 
   128    64    64    64
Direct
  0.1250000000000000  0.1250000000000000  0.3750000000000000
  0.3750000000000000  0.1250000000000000  0.3750000000000000
  0.6250000000000000  0.1250000000000000  0.3750000000000000
  0.8750000000000000  0.1250000000000000  0.3750000000000000
  0.1250000000000000  0.3750000000000000  0.3750000000000000
  0.3750000000000000  0.3750000000000000  0.3750000000000000
  0.6250000000000000  0.3750000000000000  0.3750000000000000
  0.8750000000000000  0.3750000000000000  0.3750000000000000
  0.1250000000000000  0.6250000000000000  0.3750000000000000
  0.3750000000000000  0.6250000000000000  0.3750000000000000
  0.6250000000000000  0.6250000000000000  0.3750000000000000
  0.8750000000000000  0.6250000000000000  0.3750000000000000
  0.1250000000000000  0.8750000000000000  0.3750000000000000
  0.3750000000000000  0.8750000000000000  0.3750000000000000
  0.6250000000000000  0.8750000000000000  0.3750000000000000
  0.8750000000000000  0.8750000000000000  0.3750000000000000
  0.1250000000000000  0.1250000000000000  0.8750000000000000
  0.3750000000000000  0.1250000000000000  0.8750000000000000
  0.6250000000000000  0.1250000000000000  0.8750000000000000
  0.8750000000000000  0.1250000000000000  0.8750000000000000
  0.1250000000000000  0.3750000000000000  0.8750000000000000
  0.3750000000000000  0.3750000000000000  0.8750000000000000
  0.6250000000000000  0.3750000000000000  0.8750000000000000
  0.8750000000000000  0.3750000000000000  0.8750000000000000
  0.1250000000000000  0.6250000000000000  0.8750000000000000
  0.3750000000000000  0.6250000000000000  0.8750000000000000
  0.6250000000000000  0.6250000000000000  0.8750000000000000
  0.8750000000000000  0.6250000000000000  0.8750000000000000
  0.1250000000000000  0.8750000000000000  0.8750000000000000
  0.3750000000000000  0.8750000000000000  0.8750000000000000
  0.6250000000000000  0.8750000000000000  0.8750000000000000
  0.8750000000000000  0.8750000000000000  0.8750000000000000
  0.1250000000000000  0.1250000000000000  0.1250000000000000
  0.3750000000000000  0.1250000000000000  0.1250000000000000
  0.6250000000000000  0.1250000000000000  0.1250000000000000
  0.8750000000000000  0.1250000000000000  0.1250000000000000
  0.1250000000000000  0.3750000000000000  0.1250000000000000
  0.3750000000000000  0.3750000000000000  0.1250000000000000
  0.6250000000000000  0.3750000000000000  0.1250000000000000
  0.8750000000000000  0.3750000000000000  0.1250000000000000
  0.1250000000000000  0.6250000000000000  0.1250000000000000
  0.3750000000000000  0.6250000000000000  0.1250000000000000
  0.6250000000000000  0.6250000000000000  0.1250000000000000
  0.8750000000000000  0.6250000000000000  0.1250000000000000
  0.1250000000000000  0.8750000000000000  0.1250000000000000
  0.3750000000000000  0.8750000000000000  0.1250000000000000
  0.6250000000000000  0.8750000000000000  0.1250000000000000
  0.8750000000000000  0.8750000000000000  0.1250000000000000
  0.1250000000000000  0.1250000000000000  0.6250000000000000
  0.3750000000000000  0.1250000000000000  0.6250000000000000
  0.6250000000000000  0.1250000000000000  0.6250000000000000
  0.8750000000000000  0.1250000000000000  0.6250000000000000
  0.1250000000000000  0.3750000000000000  0.6250000000000000
  0.3750000000000000  0.3750000000000000  0.6250000000000000
  0.6250000000000000  0.3750000000000000  0.6250000000000000
  0.8750000000000000  0.3750000000000000  0.6250000000000000
  0.1250000000000000  0.6250000000000000  0.6250000000000000
  0.3750000000000000  0.6250000000000000  0.6250000000000000
  0.6250000000000000  0.6250000000000000  0.6250000000000000
  0.8750000000000000  0.6250000000000000  0.6250000000000000
  0.1250000000000000  0.8750000000000000  0.6250000000000000
  0.3750000000000000  0.8750000000000000  0.6250000000000000
  0.6250000000000000  0.8750000000000000  0.6250000000000000
  0.8750000000000000  0.8750000000000000  0.6250000000000000
  0.1250000000000000  0.0000000000000000  0.2500000000000000
  0.3750000000000000  0.0000000000000000  0.2500000000000000
  0.6250000000000000  0.0000000000000000  0.2500000000000000
  0.8750000000000000  0.0000000000000000  0.2500000000000000
  0.1250000000000000  0.2500000000000000  0.2500000000000000
  0.3750000000000000  0.2500000000000000  0.2500000000000000
  0.6250000000000000  0.2500000000000000  0.2500000000000000
  0.8750000000000000  0.2500000000000000  0.2500000000000000
  0.1250000000000000  0.5000000000000000  0.2500000000000000
  0.3750000000000000  0.5000000000000000  0.2500000000000000
  0.6250000000000000  0.5000000000000000  0.2500000000000000
  0.8750000000000000  0.5000000000000000  0.2500000000000000
  0.1250000000000000  0.7500000000000000  0.2500000000000000
  0.3750000000000000  0.7500000000000000  0.2500000000000000
  0.6250000000000000  0.7500000000000000  0.2500000000000000
  0.8750000000000000  0.7500000000000000  0.2500000000000000
  0.1250000000000000  0.0000000000000000  0.7500000000000000
  0.3750000000000000  0.0000000000000000  0.7500000000000000
  0.6250000000000000  0.0000000000000000  0.7500000000000000
  0.8750000000000000  0.0000000000000000  0.7500000000000000
  0.1250000000000000  0.2500000000000000  0.7500000000000000
  0.3750000000000000  0.2500000000000000  0.7500000000000000
  0.6250000000000000  0.2500000000000000  0.7500000000000000
  0.8750000000000000  0.2500000000000000  0.7500000000000000
  0.1250000000000000  0.5000000000000000  0.7500000000000000
  0.3750000000000000  0.5000000000000000  0.7500000000000000
  0.6250000000000000  0.5000000000000000  0.7500000000000000
  0.8750000000000000  0.5000000000000000  0.7500000000000000
  0.1250000000000000  0.7500000000000000  0.7500000000000000
  0.3750000000000000  0.7500000000000000  0.7500000000000000
  0.6250000000000000  0.7500000000000000  0.7500000000000000
  0.8750000000000000  0.7500000000000000  0.7500000000000000
  0.0000000000000000  0.1250000000000000  0.0000000000000000
  0.2500000000000000  0.1250000000000000  0.0000000000000000
  0.5000000000000000  0.1250000000000000  0.0000000000000000
  0.7500000000000000  0.1250000000000000  0.0000000000000000
  0.0000000000000000  0.3750000000000000  0.0000000000000000
  0.2500000000000000  0.3750000000000000  0.0000000000000000
  0.5000000000000000  0.3750000000000000  0.0000000000000000
  0.7500000000000000  0.3750000000000000  0.0000000000000000
  0.0000000000000000  0.6250000000000000  0.0000000000000000
  0.2500000000000000  0.6250000000000000  0.0000000000000000
  0.5000000000000000  0.6250000000000000  0.0000000000000000
  0.7500000000000000  0.6250000000000000  0.0000000000000000
  0.0000000000000000  0.8750000000000000  0.0000000000000000
  0.2500000000000000  0.8750000000000000  0.0000000000000000
  0.5000000000000000  0.8750000000000000  0.0000000000000000
  0.7500000000000000  0.8750000000000000  0.0000000000000000
  0.0000000000000000  0.1250000000000000  0.5000000000000000
  0.2500000000000000  0.1250000000000000  0.5000000000000000
  0.5000000000000000  0.1250000000000000  0.5000000000000000
  0.7500000000000000  0.1250000000000000  0.5000000000000000
  0.0000000000000000  0.3750000000000000  0.5000000000000000
  0.2500000000000000  0.3750000000000000  0.5000000000000000
  0.5000000000000000  0.3750000000000000  0.5000000000000000
  0.7500000000000000  0.3750000000000000  0.5000000000000000
  0.0000000000000000  0.6250000000000000  0.5000000000000000
  0.2500000000000000  0.6250000000000000  0.5000000000000000
  0.5000000000000000  0.6250000000000000  0.5000000000000000
  0.7500000000000000  0.6250000000000000  0.5000000000000000
  0.0000000000000000  0.8750000000000000  0.5000000000000000
  0.2500000000000000  0.8750000000000000  0.5000000000000000
  0.5000000000000000  0.8750000000000000  0.5000000000000000
  0.7500000000000000  0.8750000000000000  0.5000000000000000
  0.1250000000000000  0.0000000000000000  0.0000000000000000
  0.3750000000000000  0.0000000000000000  0.0000000000000000
  0.6250000000000000  0.0000000000000000  0.0000000000000000
  0.8750000000000000  0.0000000000000000  0.0000000000000000
  0.1250000000000000  0.2500000000000000  0.0000000000000000
  0.3750000000000000  0.2500000000000000  0.0000000000000000
  0.6250000000000000  0.2500000000000000  0.0000000000000000
  0.8750000000000000  0.2500000000000000  0.0000000000000000
  0.1250000000000000  0.5000000000000000  0.0000000000000000
  0.3750000000000000  0.5000000000000000  0.0000000000000000
  0.6250000000000000  0.5000000000000000  0.0000000000000000
  0.8750000000000000  0.5000000000000000  0.0000000000000000
  0.1250000000000000  0.7500000000000000  0.0000000000000000
  0.3750000000000000  0.7500000000000000  0.0000000000000000
  0.6250000000000000  0.7500000000000000  0.0000000000000000
  0.8750000000000000  0.7500000000000000  0.0000000000000000
  0.1250000000000000  0.0000000000000000  0.5000000000000000
  0.3750000000000000  0.0000000000000000  0.5000000000000000
  0.6250000000000000  0.0000000000000000  0.5000000000000000
  0.8750000000000000  0.0000000000000000  0.5000000000000000
  0.1250000000000000  0.2500000000000000  0.5000000000000000
  0.3750000000000000  0.2500000000000000  0.5000000000000000
  0.6250000000000000  0.2500000000000000  0.5000000000000000
  0.8750000000000000  0.2500000000000000  0.5000000000000000
  0.1250000000000000  0.5000000000000000  0.5000000000000000
  0.3750000000000000  0.5000000000000000  0.5000000000000000
  0.6250000000000000  0.5000000000000000  0.5000000000000000
  0.8750000000000000  0.5000000000000000  0.5000000000000000
  0.1250000000000000  0.7500000000000000  0.5000000000000000
  0.3750000000000000  0.7500000000000000  0.5000000000000000
  0.6250000000000000  0.7500000000000000  0.5000000000000000
  0.8750000000000000  0.7500000000000000  0.5000000000000000
  0.0000000000000000  0.1250000000000000  0.2500000000000000
  0.2500000000000000  0.1250000000000000  0.2500000000000000
  0.5000000000000000  0.1250000000000000  0.2500000000000000
  0.7500000000000000  0.1250000000000000  0.2500000000000000
  0.0000000000000000  0.3750000000000000  0.2500000000000000
  0.2500000000000000  0.3750000000000000  0.2500000000000000
  0.5000000000000000  0.3750000000000000  0.2500000000000000
  0.7500000000000000  0.3750000000000000  0.2500000000000000
  0.0000000000000000  0.6250000000000000  0.2500000000000000
  0.2500000000000000  0.6250000000000000  0.2500000000000000
  0.5000000000000000  0.6250000000000000  0.2500000000000000
  0.7500000000000000  0.6250000000000000  0.2500000000000000
  0.0000000000000000  0.8750000000000000  0.2500000000000000
  0.2500000000000000  0.8750000000000000  0.2500000000000000
  0.5000000000000000  0.8750000000000000  0.2500000000000000
  0.7500000000000000  0.8750000000000000  0.2500000000000000
  0.0000000000000000  0.1250000000000000  0.7500000000000000
  0.2500000000000000  0.1250000000000000  0.7500000000000000
  0.5000000000000000  0.1250000000000000  0.7500000000000000
  0.7500000000000000  0.1250000000000000  0.7500000000000000
  0.0000000000000000  0.3750000000000000  0.7500000000000000
  0.2500000000000000  0.3750000000000000  0.7500000000000000
  0.5000000000000000  0.3750000000000000  0.7500000000000000
  0.7500000000000000  0.3750000000000000  0.7500000000000000
  0.0000000000000000  0.6250000000000000  0.7500000000000000
  0.2500000000000000  0.6250000000000000  0.7500000000000000
  0.5000000000000000  0.6250000000000000  0.7500000000000000
  0.7500000000000000  0.6250000000000000  0.7500000000000000
  0.0000000000000000  0.8750000000000000  0.7500000000000000
  0.2500000000000000  0.8750000000000000  0.7500000000000000
  0.5000000000000000  0.8750000000000000  0.7500000000000000
  0.7500000000000000  0.8750000000000000  0.7500000000000000
  0.9995483018999991  0.0000000000000000  0.3745483018999991
  0.2500000000000000  0.0000000000000000  0.3750000000000000
  0.5000000000000000  0.0000000000000000  0.3750000000000000
  0.7500000000000000  0.0000000000000000  0.3750000000000000
  0.0000000000000000  0.2500000000000000  0.3750000000000000
  0.2500000000000000  0.2500000000000000  0.3750000000000000
  0.5000000000000000  0.2500000000000000  0.3750000000000000
  0.7500000000000000  0.2500000000000000  0.3750000000000000
  0.0000000000000000  0.5000000000000000  0.3750000000000000
  0.2500000000000000  0.5000000000000000  0.3750000000000000
  0.5000000000000000  0.5000000000000000  0.3750000000000000
  0.7500000000000000  0.5000000000000000  0.3750000000000000
  0.0000000000000000  0.7500000000000000  0.3750000000000000
  0.2500000000000000  0.7500000000000000  0.3750000000000000
  0.5000000000000000  0.7500000000000000  0.3750000000000000
  0.7500000000000000  0.7500000000000000  0.3750000000000000
  0.0000000000000000  0.0000000000000000  0.8750000000000000
  0.2500000000000000  0.0000000000000000  0.8750000000000000
  0.5000000000000000  0.0000000000000000  0.8750000000000000
  0.7500000000000000  0.0000000000000000  0.8750000000000000
  0.0000000000000000  0.2500000000000000  0.8750000000000000
  0.2500000000000000  0.2500000000000000  0.8750000000000000
  0.5000000000000000  0.2500000000000000  0.8750000000000000
  0.7500000000000000  0.2500000000000000  0.8750000000000000
  0.0000000000000000  0.5000000000000000  0.8750000000000000
  0.2500000000000000  0.5000000000000000  0.8750000000000000
  0.5000000000000000  0.5000000000000000  0.8750000000000000
  0.7500000000000000  0.5000000000000000  0.8750000000000000
  0.0000000000000000  0.7500000000000000  0.8750000000000000
  0.2500000000000000  0.7500000000000000  0.8750000000000000
  0.5000000000000000  0.7500000000000000  0.8750000000000000
  0.7500000000000000  0.7500000000000000  0.8750000000000000
  0.0000000000000000  0.0000000000000000  0.1250000000000000
  0.2500000000000000  0.0000000000000000  0.1250000000000000
  0.5000000000000000  0.0000000000000000  0.1250000000000000
  0.7500000000000000  0.0000000000000000  0.1250000000000000
  0.0000000000000000  0.2500000000000000  0.1250000000000000
  0.2500000000000000  0.2500000000000000  0.1250000000000000
  0.5000000000000000  0.2500000000000000  0.1250000000000000
  0.7500000000000000  0.2500000000000000  0.1250000000000000
  0.0000000000000000  0.5000000000000000  0.1250000000000000
  0.2500000000000000  0.5000000000000000  0.1250000000000000
  0.5000000000000000  0.5000000000000000  0.1250000000000000
  0.7500000000000000  0.5000000000000000  0.1250000000000000
  0.0000000000000000  0.7500000000000000  0.1250000000000000
  0.2500000000000000  0.7500000000000000  0.1250000000000000
  0.5000000000000000  0.7500000000000000  0.1250000000000000
  0.7500000000000000  0.7500000000000000  0.1250000000000000
  0.0000000000000000  0.0000000000000000  0.6250000000000000
  0.2500000000000000  0.0000000000000000  0.6250000000000000
  0.5000000000000000  0.0000000000000000  0.6250000000000000
  0.7500000000000000  0.0000000000000000  0.6250000000000000
  0.0000000000000000  0.2500000000000000  0.6250000000000000
  0.2500000000000000  0.2500000000000000  0.6250000000000000
  0.5000000000000000  0.2500000000000000  0.6250000000000000
  0.7500000000000000  0.2500000000000000  0.6250000000000000
  0.0000000000000000  0.5000000000000000  0.6250000000000000
  0.2500000000000000  0.5000000000000000  0.6250000000000000
  0.5000000000000000  0.5000000000000000  0.6250000000000000
  0.7500000000000000  0.5000000000000000  0.6250000000000000
  0.0000000000000000  0.7500000000000000  0.6250000000000000
  0.2500000000000000  0.7500000000000000  0.6250000000000000
  0.5000000000000000  0.7500000000000000  0.6250000000000000
  0.7500000000000000  0.7500000000000000  0.6250000000000000
  0.1250000000000000  0.1250000000000000  0.0000000000000000
  0.3750000000000000  0.1250000000000000  0.0000000000000000
  0.6250000000000000  0.1250000000000000  0.0000000000000000
  0.8750000000000000  0.1250000000000000  0.0000000000000000
  0.1250000000000000  0.3750000000000000  0.0000000000000000
  0.3750000000000000  0.3750000000000000  0.0000000000000000
  0.6250000000000000  0.3750000000000000  0.0000000000000000
  0.8750000000000000  0.3750000000000000  0.0000000000000000
  0.1250000000000000  0.6250000000000000  0.0000000000000000
  0.3750000000000000  0.6250000000000000  0.0000000000000000
  0.6250000000000000  0.6250000000000000  0.0000000000000000
  0.8750000000000000  0.6250000000000000  0.0000000000000000
  0.1250000000000000  0.8750000000000000  0.0000000000000000
  0.3750000000000000  0.8750000000000000  0.0000000000000000
  0.6250000000000000  0.8750000000000000  0.0000000000000000
  0.8750000000000000  0.8750000000000000  0.0000000000000000
  0.1250000000000000  0.1250000000000000  0.5000000000000000
  0.3750000000000000  0.1250000000000000  0.5000000000000000
  0.6250000000000000  0.1250000000000000  0.5000000000000000
  0.8750000000000000  0.1250000000000000  0.5000000000000000
  0.1250000000000000  0.3750000000000000  0.5000000000000000
  0.3750000000000000  0.3750000000000000  0.5000000000000000
  0.6250000000000000  0.3750000000000000  0.5000000000000000
  0.8750000000000000  0.3750000000000000  0.5000000000000000
  0.1250000000000000  0.6250000000000000  0.5000000000000000
  0.3750000000000000  0.6250000000000000  0.5000000000000000
  0.6250000000000000  0.6250000000000000  0.5000000000000000
  0.8750000000000000  0.6250000000000000  0.5000000000000000
  0.1250000000000000  0.8750000000000000  0.5000000000000000
  0.3750000000000000  0.8750000000000000  0.5000000000000000
  0.6250000000000000  0.8750000000000000  0.5000000000000000
  0.8750000000000000  0.8750000000000000  0.5000000000000000
  0.1250000000000000  0.1250000000000000  0.2500000000000000
  0.3750000000000000  0.1250000000000000  0.2500000000000000
  0.6250000000000000  0.1250000000000000  0.2500000000000000
  0.8750000000000000  0.1250000000000000  0.2500000000000000
  0.1250000000000000  0.3750000000000000  0.2500000000000000
  0.3750000000000000  0.3750000000000000  0.2500000000000000
  0.6250000000000000  0.3750000000000000  0.2500000000000000
  0.8750000000000000  0.3750000000000000  0.2500000000000000
  0.1250000000000000  0.6250000000000000  0.2500000000000000
  0.3750000000000000  0.6250000000000000  0.2500000000000000
  0.6250000000000000  0.6250000000000000  0.2500000000000000
  0.8750000000000000  0.6250000000000000  0.2500000000000000
  0.1250000000000000  0.8750000000000000  0.2500000000000000
  0.3750000000000000  0.8750000000000000  0.2500000000000000
  0.6250000000000000  0.8750000000000000  0.2500000000000000
  0.8750000000000000  0.8750000000000000  0.2500000000000000
  0.1250000000000000  0.1250000000000000  0.7500000000000000
  0.3750000000000000  0.1250000000000000  0.7500000000000000
  0.6250000000000000  0.1250000000000000  0.7500000000000000
  0.8750000000000000  0.1250000000000000  0.7500000000000000
  0.1250000000000000  0.3750000000000000  0.7500000000000000
  0.3750000000000000  0.3750000000000000  0.7500000000000000
  0.6250000000000000  0.3750000000000000  0.7500000000000000
  0.8750000000000000  0.3750000000000000  0.7500000000000000
  0.1250000000000000  0.6250000000000000  0.7500000000000000
  0.3750000000000000  0.6250000000000000  0.7500000000000000
  0.6250000000000000  0.6250000000000000  0.7500000000000000
  0.8750000000000000  0.6250000000000000  0.7500000000000000
  0.1250000000000000  0.8750000000000000  0.7500000000000000
  0.3750000000000000  0.8750000000000000  0.7500000000000000
  0.6250000000000000  0.8750000000000000  0.7500000000000000
  0.8750000000000000  0.8750000000000000  0.7500000000000000
 
  0.00000000E+00  0.00000000E+00  0.00000000E+00
  0.00000000E+00  0.00000000E+00  0.00000000E+00
  0.00000000E+00  0.00000000E+00  0.00000000E+00
  0.00000000E+00  0.00000000E+00  0.00000000E+00
  0.00000000E+00  0.00000000E+00  0.00000000E+00
  0.00000000E+00  0.00000000E+00  0.00000000E+00
  0.00000000E+00  0.00000000E+00  0.00000000E+00
  0.00000000E+00  0.00000000E+00  0.00000000E+00
  0.00000000E+00  0.00000000E+00  0.00000000E+00
  0.00000000E+00  0.00000000E+00  0.00000000E+00
  0.00000000E+00  0.00000000E+00  0.00000000E+00
  0.00000000E+00  0.00000000E+00  0.00000000E+00
  0.00000000E+00  0.00000000E+00  0.00000000E+00
  0.00000000E+00  0.00000000E+00  0.00000000E+00
  0.00000000E+00  0.00000000E+00  0.00000000E+00
  0.00000000E+00  0.00000000E+00  0.00000000E+00
  0.00000000E+00  0.00000000E+00  0.00000000E+00
  0.00000000E+00  0.00000000E+00  0.00000000E+00
  0.00000000E+00  0.00000000E+00  0.00000000E+00
  0.00000000E+00  0.00000000E+00  0.00000000E+00
  0.00000000E+00  0.00000000E+00  0.00000000E+00
  0.00000000E+00  0.00000000E+00  0.00000000E+00
  0.00000000E+00  0.00000000E+00  0.00000000E+00
  0.00000000E+00  0.00000000E+00  0.00000000E+00
  0.00000000E+00  0.00000000E+00  0.00000000E+00
  0.00000000E+00  0.00000000E+00  0.00000000E+00
  0.00000000E+00  0.00000000E+00  0.00000000E+00
  0.00000000E+00  0.00000000E+00  0.00000000E+00
  0.00000000E+00  0.00000000E+00  0.00000000E+00
  0.00000000E+00  0.00000000E+00  0.00000000E+00
  0.00000000E+00  0.00000000E+00  0.00000000E+00
  0.00000000E+00  0.00000000E+00  0.00000000E+00
  0.00000000E+00  0.00000000E+00  0.00000000E+00
  0.00000000E+00  0.00000000E+00  0.00000000E+00
  0.00000000E+00  0.00000000E+00  0.00000000E+00
  0.00000000E+00  0.00000000E+00  0.00000000E+00
  0.00000000E+00  0.00000000E+00  0.00000000E+00
  0.00000000E+00  0.00000000E+00  0.00000000E+00
  0.00000000E+00  0.00000000E+00  0.00000000E+00
  0.00000000E+00  0.00000000E+00  0.00000000E+00
  0.00000000E+00  0.00000000E+00  0.00000000E+00
  0.00000000E+00  0.00000000E+00  0.00000000E+00
  0.00000000E+00  0.00000000E+00  0.00000000E+00
  0.00000000E+00  0.00000000E+00  0.00000000E+00
  0.00000000E+00  0.00000000E+00  0.00000000E+00
  0.00000000E+00  0.00000000E+00  0.00000000E+00
  0.00000000E+00  0.00000000E+00  0.00000000E+00
  0.00000000E+00  0.00000000E+00  0.00000000E+00
  0.00000000E+00  0.00000000E+00  0.00000000E+00
  0.00000000E+00  0.00000000E+00  0.00000000E+00
  0.00000000E+00  0.00000000E+00  0.00000000E+00
  0.00000000E+00  0.00000000E+00  0.00000000E+00
  0.00000000E+00  0.00000000E+00  0.00000000E+00
  0.00000000E+00  0.00000000E+00  0.00000000E+00
  0.00000000E+00  0.00000000E+00  0.00000000E+00
  0.00000000E+00  0.00000000E+00  0.00000000E+00
  0.00000000E+00  0.00000000E+00  0.00000000E+00
  0.00000000E+00  0.00000000E+00  0.00000000E+00
  0.00000000E+00  0.00000000E+00  0.00000000E+00
  0.00000000E+00  0.00000000E+00  0.00000000E+00
  0.00000000E+00  0.00000000E+00  0.00000000E+00
  0.00000000E+00  0.00000000E+00  0.00000000E+00
  0.00000000E+00  0.00000000E+00  0.00000000E+00
  0.00000000E+00  0.00000000E+00  0.00000000E+00
  0.00000000E+00  0.00000000E+00  0.00000000E+00
  0.00000000E+00  0.00000000E+00  0.00000000E+00
  0.00000000E+00  0.00000000E+00  0.00000000E+00
  0.00000000E+00  0.00000000E+00  0.00000000E+00
  0.00000000E+00  0.00000000E+00  0.00000000E+00
  0.00000000E+00  0.00000000E+00  0.00000000E+00
  0.00000000E+00  0.00000000E+00  0.00000000E+00
  0.00000000E+00  0.00000000E+00  0.00000000E+00
  0.00000000E+00  0.00000000E+00  0.00000000E+00
  0.00000000E+00  0.00000000E+00  0.00000000E+00
  0.00000000E+00  0.00000000E+00  0.00000000E+00
  0.00000000E+00  0.00000000E+00  0.00000000E+00
  0.00000000E+00  0.00000000E+00  0.00000000E+00
  0.00000000E+00  0.00000000E+00  0.00000000E+00
  0.00000000E+00  0.00000000E+00  0.00000000E+00
  0.00000000E+00  0.00000000E+00  0.00000000E+00
  0.00000000E+00  0.00000000E+00  0.00000000E+00
  0.00000000E+00  0.00000000E+00  0.00000000E+00
  0.00000000E+00  0.00000000E+00  0.00000000E+00
  0.00000000E+00  0.00000000E+00  0.00000000E+00
  0.00000000E+00  0.00000000E+00  0.00000000E+00
  0.00000000E+00  0.00000000E+00  0.00000000E+00
  0.00000000E+00  0.00000000E+00  0.00000000E+00
  0.00000000E+00  0.00000000E+00  0.00000000E+00
  0.00000000E+00  0.00000000E+00  0.00000000E+00
  0.00000000E+00  0.00000000E+00  0.00000000E+00
  0.00000000E+00  0.00000000E+00  0.00000000E+00
  0.00000000E+00  0.00000000E+00  0.00000000E+00
  0.00000000E+00  0.00000000E+00  0.00000000E+00
  0.00000000E+00  0.00000000E+00  0.00000000E+00
  0.00000000E+00  0.00000000E+00  0.00000000E+00
  0.00000000E+00  0.00000000E+00  0.00000000E+00
  0.00000000E+00  0.00000000E+00  0.00000000E+00
  0.00000000E+00  0.00000000E+00  0.00000000E+00
  0.00000000E+00  0.00000000E+00  0.00000000E+00
  0.00000000E+00  0.00000000E+00  0.00000000E+00
  0.00000000E+00  0.00000000E+00  0.00000000E+00
  0.00000000E+00  0.00000000E+00  0.00000000E+00
  0.00000000E+00  0.00000000E+00  0.00000000E+00
  0.00000000E+00  0.00000000E+00  0.00000000E+00
  0.00000000E+00  0.00000000E+00  0.00000000E+00
  0.00000000E+00  0.00000000E+00  0.00000000E+00
  0.00000000E+00  0.00000000E+00  0.00000000E+00
  0.00000000E+00  0.00000000E+00  0.00000000E+00
  0.00000000E+00  0.00000000E+00  0.00000000E+00
  0.00000000E+00  0.00000000E+00  0.00000000E+00
  0.00000000E+00  0.00000000E+00  0.00000000E+00
  0.00000000E+00  0.00000000E+00  0.00000000E+00
  0.00000000E+00  0.00000000E+00  0.00000000E+00
  0.00000000E+00  0.00000000E+00  0.00000000E+00
  0.00000000E+00  0.00000000E+00  0.00000000E+00
  0.00000000E+00  0.00000000E+00  0.00000000E+00
  0.00000000E+00  0.00000000E+00  0.00000000E+00
  0.00000000E+00  0.00000000E+00  0.00000000E+00
  0.00000000E+00  0.00000000E+00  0.00000000E+00
  0.00000000E+00  0.00000000E+00  0.00000000E+00
  0.00000000E+00  0.00000000E+00  0.00000000E+00
  0.00000000E+00  0.00000000E+00  0.00000000E+00
  0.00000000E+00  0.00000000E+00  0.00000000E+00
  0.00000000E+00  0.00000000E+00  0.00000000E+00
  0.00000000E+00  0.00000000E+00  0.00000000E+00
  0.00000000E+00  0.00000000E+00  0.00000000E+00
  0.00000000E+00  0.00000000E+00  0.00000000E+00
  0.00000000E+00  0.00000000E+00  0.00000000E+00
  0.00000000E+00  0.00000000E+00  0.00000000E+00
  0.00000000E+00  0.00000000E+00  0.00000000E+00
  0.00000000E+00  0.00000000E+00  0.00000000E+00
  0.00000000E+00  0.00000000E+00  0.00000000E+00
  0.00000000E+00  0.00000000E+00  0.00000000E+00
  0.00000000E+00  0.00000000E+00  0.00000000E+00
  0.00000000E+00  0.00000000E+00  0.00000000E+00
  0.00000000E+00  0.00000000E+00  0.00000000E+00
  0.00000000E+00  0.00000000E+00  0.00000000E+00
  0.00000000E+00  0.00000000E+00  0.00000000E+00
  0.00000000E+00  0.00000000E+00  0.00000000E+00
  0.00000000E+00  0.00000000E+00  0.00000000E+00
  0.00000000E+00  0.00000000E+00  0.00000000E+00
  0.00000000E+00  0.00000000E+00  0.00000000E+00
  0.00000000E+00  0.00000000E+00  0.00000000E+00
  0.00000000E+00  0.00000000E+00  0.00000000E+00
  0.00000000E+00  0.00000000E+00  0.00000000E+00
  0.00000000E+00  0.00000000E+00  0.00000000E+00
  0.00000000E+00  0.00000000E+00  0.00000000E+00
  0.00000000E+00  0.00000000E+00  0.00000000E+00
  0.00000000E+00  0.00000000E+00  0.00000000E+00
  0.00000000E+00  0.00000000E+00  0.00000000E+00
  0.00000000E+00  0.00000000E+00  0.00000000E+00
  0.00000000E+00  0.00000000E+00  0.00000000E+00
  0.00000000E+00  0.00000000E+00  0.00000000E+00
  0.00000000E+00  0.00000000E+00  0.00000000E+00
  0.00000000E+00  0.00000000E+00  0.00000000E+00
  0.00000000E+00  0.00000000E+00  0.00000000E+00
  0.00000000E+00  0.00000000E+00  0.00000000E+00
  0.00000000E+00  0.00000000E+00  0.00000000E+00
  0.00000000E+00  0.00000000E+00  0.00000000E+00
  0.00000000E+00  0.00000000E+00  0.00000000E+00
  0.00000000E+00  0.00000000E+00  0.00000000E+00
  0.00000000E+00  0.00000000E+00  0.00000000E+00
  0.00000000E+00  0.00000000E+00  0.00000000E+00
  0.00000000E+00  0.00000000E+00  0.00000000E+00
  0.00000000E+00  0.00000000E+00  0.00000000E+00
  0.00000000E+00  0.00000000E+00  0.00000000E+00
  0.00000000E+00  0.00000000E+00  0.00000000E+00
  0.00000000E+00  0.00000000E+00  0.00000000E+00
  0.00000000E+00  0.00000000E+00  0.00000000E+00
  0.00000000E+00  0.00000000E+00  0.00000000E+00
  0.00000000E+00  0.00000000E+00  0.00000000E+00
  0.00000000E+00  0.00000000E+00  0.00000000E+00
  0.00000000E+00  0.00000000E+00  0.00000000E+00
  0.00000000E+00  0.00000000E+00  0.00000000E+00
  0.00000000E+00  0.00000000E+00  0.00000000E+00
  0.00000000E+00  0.00000000E+00  0.00000000E+00
  0.00000000E+00  0.00000000E+00  0.00000000E+00
  0.00000000E+00  0.00000000E+00  0.00000000E+00
  0.00000000E+00  0.00000000E+00  0.00000000E+00
  0.00000000E+00  0.00000000E+00  0.00000000E+00
  0.00000000E+00  0.00000000E+00  0.00000000E+00
  0.00000000E+00  0.00000000E+00  0.00000000E+00
  0.00000000E+00  0.00000000E+00  0.00000000E+00
  0.00000000E+00  0.00000000E+00  0.00000000E+00
  0.00000000E+00  0.00000000E+00  0.00000000E+00
  0.00000000E+00  0.00000000E+00  0.00000000E+00
  0.00000000E+00  0.00000000E+00  0.00000000E+00
  0.00000000E+00  0.00000000E+00  0.00000000E+00
  0.00000000E+00  0.00000000E+00  0.00000000E+00
  0.00000000E+00  0.00000000E+00  0.00000000E+00
  0.00000000E+00  0.00000000E+00  0.00000000E+00
  0.00000000E+00  0.00000000E+00  0.00000000E+00
  0.00000000E+00  0.00000000E+00  0.00000000E+00
  0.00000000E+00  0.00000000E+00  0.00000000E+00
  0.00000000E+00  0.00000000E+00  0.00000000E+00
  0.00000000E+00  0.00000000E+00  0.00000000E+00
  0.00000000E+00  0.00000000E+00  0.00000000E+00
  0.00000000E+00  0.00000000E+00  0.00000000E+00
  0.00000000E+00  0.00000000E+00  0.00000000E+00
  0.00000000E+00  0.00000000E+00  0.00000000E+00
  0.00000000E+00  0.00000000E+00  0.00000000E+00
  0.00000000E+00  0.00000000E+00  0.00000000E+00
  0.00000000E+00  0.00000000E+00  0.00000000E+00
  0.00000000E+00  0.00000000E+00  0.00000000E+00
  0.00000000E+00  0.00000000E+00  0.00000000E+00
  0.00000000E+00  0.00000000E+00  0.00000000E+00
  0.00000000E+00  0.00000000E+00  0.00000000E+00