# Compound: Li2OS2Fe2. Old comment: Fe2L
   1.00000000000000     
     3.8588610800000001    0.0006887600000000   -0.0031809700000000
    -0.0006618400000000    3.8588666100000002   -0.0031809800000000
    -1.9238397100000000   -1.9245153600000000    6.3831795900000001
   Li   O    S    Fe
     2     1     2     2
Direct
  0.4482007100000018  0.0518340499999965  0.0000142100000033
  0.9481659500000035  0.5517992899999982  0.9999857899999967
  0.9481886299999971  0.0518123800000012  0.0000000000000000
  0.5980217199999984  0.7016603300000028  0.2996754300000006
  0.2983396699999972  0.4019782800000016  0.7003245699999994
  0.1080962400000018  0.2117289099999979  0.3198007499999989
  0.7882710900000021  0.8919037599999982  0.6801992500000011
 
  0.00000000E+00  0.00000000E+00  0.00000000E+00
  0.00000000E+00  0.00000000E+00  0.00000000E+00
  0.00000000E+00  0.00000000E+00  0.00000000E+00
  0.00000000E+00  0.00000000E+00  0.00000000E+00
  0.00000000E+00  0.00000000E+00  0.00000000E+00
  0.00000000E+00  0.00000000E+00  0.00000000E+00
  0.00000000E+00  0.00000000E+00  0.00000000E+00
