# Compound: Fe24Li31O16S24. Old comment:
   1.0000000000000000     
     7.8866538400000001   -7.9475566999999998    0.0601846200000000
     7.3433505600000002    7.9467915400000004   -2.8792872599999999
    -0.0478291200000000   -0.1071026000000000   10.5527142699999992
   Fe   Li   O    S 
    24    31    16    24
Direct
  0.2612545317993210  0.6635632014396079  0.6044308158210699
  0.2330556557276467  0.3336731218007411  0.3999743076043634
  0.1231770348716464  0.3251585325629776  0.8037514624621839
  0.3742802997641992  0.5790670676454008  0.8186817030027135
  0.8759892909739292  0.1755785761327388  0.1981022023674157
  0.1262086334164473  0.4213849119333329  0.1841029831724526
  0.0183041982510321  0.9172797857625081  0.6020577762959120
  0.9889086426512961  0.5866764926186031  0.3977524326306156
  0.8680879850924943  0.5722755264065273  0.7889619518317434
  0.1244517437048985  0.8283797294939540  0.8177108506125744
  0.6280591899855220  0.4270452173995200  0.1986462189554448
  0.8756807260547751  0.6691421909861475  0.1812484713499224
  0.7645146882817809  0.1641958462271942  0.6025630955410449
  0.7424187422943757  0.8335765825559418  0.3982455015492289
  0.6269292082396707  0.8187671249902533  0.7933109109715508
  0.8745650880736370  0.0775810020227995  0.8151355428877600
  0.3817182701454561  0.6782501397876615  0.2079917542557576
  0.6253585635289963  0.9199250930578632  0.1873765238732217
  0.5153022101288508  0.4166499634430574  0.6041857613842697
  0.4866643248490692  0.0834062122343247  0.4004131678168465
  0.3747794552248816  0.0739282748389256  0.8045915732496947
  0.6263365866930303  0.3294604808661940  0.8149915242557542
  0.1273199569927255  0.9248989807947252  0.1974017562662240
  0.3766910228930848  0.1721815109786491  0.1868902611379652
  0.4736418942473780  0.4747581353658710  0.0057436576660317
  0.0215523476861371  0.5247687452245076  0.9933576800060783
  0.9765822221537585  0.3767161301718591  0.6063982653850147
  0.0230165505297632  0.1206233832438088  0.3928763227225551
  0.8746201333595841  0.3375672559527546  0.8437060544816418
  0.1218370900106487  0.5662056267287198  0.7763609083002316
  0.1250545214813328  0.1633024585105692  0.1551631871156229
  0.3799635932687277  0.4390402534834698  0.2393613710463110
  0.2296267092820471  0.7256114782166398  0.0076684091332004
  0.7806019269935984  0.7799463352579443  0.9974480124218995
  0.7736034170115822  0.3779983890296917  0.3966986207593104
  0.6266144863367107  0.5894998375705016  0.8426222709539475
  0.8695096709290339  0.8073733526090796  0.7552408431244556
  0.8747126915073826  0.4144059902945708  0.1564883324043689
  0.1284256101755373  0.6837796897644279  0.2240787739877199
  0.9740794643116630  0.9756686826790117  0.0034880022519283
  0.5272747230328201  0.0200477576601984  0.9965031544005504
  0.4743080517435376  0.8777900577295421  0.6087458064925552
  0.5600462351989520  0.6225438377441094  0.4235094957668263
  0.3777676401082684  0.8345167118283895  0.8449195120937188
  0.6223579029061426  0.0664847163166153  0.7748268429917117
  0.6264075149261049  0.6613386443143013  0.1547560554940701
  0.8789719050057564  0.9337764776689019  0.2260356077311147
  0.7253914291414610  0.2279916416753637  0.0048641737348291
  0.2764605460052365  0.2742521894776284  0.9977027945583332
  0.2283003297778080  0.1297877924207034  0.6089810130296426
  0.2731276209975948  0.8719602509170120  0.3950621529386176
  0.1259545427861608  0.0868993769756869  0.8454714191435077
  0.3724932109039234  0.3162998551277166  0.7746352362560659
  0.3750354322778488  0.9130943048359129  0.1560351276372361
  0.6289248725643674  0.1834920076903989  0.2281281756078029
  0.9968201386915099  0.4512438137933656  0.8038091824735828
  0.2481855640482939  0.7019639311107275  0.8134991261311905
  0.0021348757660595  0.0502896873905045  0.1947948019658144
  0.2522079743888075  0.2997155867172093  0.1940001331313087
  0.7518841397873284  0.7060252016937741  0.8165289311666586
  0.9986997457284383  0.9498450217815285  0.8078074117910004
  0.7514433277077215  0.3006163959881296  0.1959910436233651
  0.0027399155933921  0.5479754644623542  0.1885545746320181
  0.5009533950143046  0.9488505654004333  0.8061675827337069
  0.7495764642184030  0.2010286650439415  0.8105439765126394
  0.5027786062774529  0.5479493231727429  0.1950037851604400
  0.7524899791036216  0.7982516070426506  0.1902770759418827
  0.2495422689683217  0.2003578420111700  0.8070538261471766
  0.4992813000553638  0.4516844209140475  0.8107343774928683
  0.2539664658709482  0.7998664763304550  0.1982885343733684
  0.5011841970988509  0.0480947036474855  0.1939916578292271
  0.0009535459593352  0.2499240516164306  0.9997017696436381
  0.2480658692160179  0.4972166190875901  0.9972976352084441
  0.0058304991351962  0.3469030421307265  0.3664894032789677
  0.2421542628231251  0.5880179847338094  0.3683786232560156
  0.9957474374804308  0.1526929446876777  0.6335379767191186
  0.2542248739968189  0.4128760043605378  0.6339431588099038
  0.7498201260613525  0.4974303379668099  0.9993876643225634
  0.0054765182904112  0.7543414744784466  0.0075498116601327
  0.7646539954065765  0.5971193743811239  0.3612098968122449
  0.9961181833180478  0.8371918185355972  0.3682114659972892
  0.7436183556681540  0.3974368578963207  0.6332760278454395
  0.0110706466711183  0.6619320872092012  0.6326310809958146
  0.4982255016776959  0.7500062076051579  0.0049600890899747
  0.7519304087755403  0.0052465761000620  0.0057755963650840
  0.5095452497180736  0.8465362514421494  0.3713508022742509
  0.7469232172835956  0.0856259162211079  0.3673904509833044
  0.4873404845239715  0.6542208846871553  0.6412685681277633
  0.7541979789998838  0.9175862286695009  0.6326250941614494
  0.2514503456941161  0.0009864843806591  1.0011776347897381
  0.4999651340979662  0.2473558797679241  1.0000843490411104
  0.2563744509846744  0.0973272883888162  0.3683496629167951
  0.4985070073048858  0.3378050389915760  0.3694553067038077
  0.2450923361694107  0.9033716105487829  0.6351523719110391
  0.5037351770463980  0.1628698994190852  0.6347529679709718

             NaN             NaN             NaN
             NaN             NaN             NaN
             NaN             NaN             NaN
             NaN             NaN             NaN
             NaN             NaN             NaN
             NaN             NaN             NaN
             NaN             NaN             NaN
             NaN             NaN             NaN
             NaN             NaN             NaN
             NaN             NaN             NaN
             NaN             NaN             NaN
             NaN             NaN             NaN
             NaN             NaN             NaN
             NaN             NaN             NaN
             NaN             NaN             NaN
             NaN             NaN             NaN
             NaN             NaN             NaN
             NaN             NaN             NaN
             NaN             NaN             NaN
             NaN             NaN             NaN
             NaN             NaN             NaN
             NaN             NaN             NaN
             NaN             NaN             NaN
             NaN             NaN             NaN
             NaN             NaN             NaN
             NaN             NaN             NaN
             NaN             NaN             NaN
             NaN             NaN             NaN
             NaN             NaN             NaN
             NaN             NaN             NaN
             NaN             NaN             NaN
             NaN             NaN             NaN
             NaN             NaN             NaN
             NaN             NaN             NaN
             NaN             NaN             NaN
             NaN             NaN             NaN
             NaN             NaN             NaN
             NaN             NaN             NaN
             NaN             NaN             NaN
             NaN             NaN             NaN
             NaN             NaN             NaN
             NaN             NaN             NaN
             NaN             NaN             NaN
             NaN             NaN             NaN
             NaN             NaN             NaN
             NaN             NaN             NaN
             NaN             NaN             NaN
             NaN             NaN             NaN
             NaN             NaN             NaN
             NaN             NaN             NaN
             NaN             NaN             NaN
             NaN             NaN             NaN
             NaN             NaN             NaN
             NaN             NaN             NaN
             NaN             NaN             NaN
             NaN             NaN             NaN
             NaN             NaN             NaN
             NaN             NaN             NaN
             NaN             NaN             NaN
             NaN             NaN             NaN
             NaN             NaN             NaN
             NaN             NaN             NaN
             NaN             NaN             NaN
             NaN             NaN             NaN
             NaN             NaN             NaN
             NaN             NaN             NaN
             NaN             NaN             NaN
             NaN             NaN             NaN
             NaN             NaN             NaN
             NaN             NaN             NaN
             NaN             NaN             NaN
             NaN             NaN             NaN
             NaN             NaN             NaN
             NaN             NaN             NaN
             NaN             NaN             NaN
             NaN             NaN             NaN
             NaN             NaN             NaN
             NaN             NaN             NaN
             NaN             NaN             NaN
             NaN             NaN             NaN
             NaN             NaN             NaN
             NaN             NaN             NaN
             NaN             NaN             NaN
             NaN             NaN             NaN
             NaN             NaN             NaN
             NaN             NaN             NaN
             NaN             NaN             NaN
             NaN             NaN             NaN
             NaN             NaN             NaN
             NaN             NaN             NaN
             NaN             NaN             NaN
             NaN             NaN             NaN
             NaN             NaN             NaN
             NaN             NaN             NaN
             NaN             NaN             NaN
