# Compound: Fe24Li31O16S24. Old comment: Li4Fe3S3O2 Enum Minimum PATH3 INIT FRAME 01
  1.0000000000
  7.8866538400  -7.9475567000   0.0601846200
  7.3433505600   7.9467915400  -2.8792872600
 -0.0478291200  -0.1071026000  10.5527142700
Fe    Li    O     S
   24    31    16    24
Direct
  0.2632134950   0.6646206733   0.6020674733
  0.2350811817   0.3348743750   0.3987588950
  0.1233504517   0.3258614050   0.8028963233
  0.3753456900   0.5795584483   0.8145499883
  0.8743842100   0.1753513000   0.1987148400
  0.1245025733   0.4214016800   0.1850629517
  0.0157840150  -0.0838717833   0.6016751717
 -0.0188700500   0.5849893233   0.3984753333
  0.8698819200   0.5740590400   0.7908345717
  0.1250912517   0.8293045400   0.8164019733
  0.6263318617   0.4273005833   0.1990954333
  0.8731888483   0.6692172183   0.1838030050
  0.7645869250   0.1631143367   0.6021831983
  0.7338526750   0.8288898700   0.3992382717
  0.6265671267   0.8185065150   0.7914553233
  0.8755163433   0.0793891817   0.8164994417
  0.3779413133   0.6760231900   0.2014696117
  0.6244384700  -0.0794296150   0.1871415633
  0.5201309050   0.4216132433   0.6011351350
  0.4855870200   0.0857042850   0.3990716633
  0.3753133100   0.0739985150   0.8026366383
  0.6257754867   0.3288055017   0.8131092867
  0.1253076783  -0.0757817350   0.1971272183
  0.3743272967   0.1701452917   0.1841737350
  0.4760249200   0.4765023467   0.0026293233
  0.0219791850   0.5254532550  -0.0054192617
 -0.0222478650   0.3777946150   0.6061409033
  0.0222274733   0.1203414767   0.3929596333
  0.8743131983   0.3386851567   0.8435490167
  0.1221046183   0.5668346733   0.7740952417
  0.1234422933   0.1629764117   0.1551096233
  0.3779470867   0.4348483950   0.2301161483
  0.2269530667   0.7250999317   0.0052777750
  0.7778509250   0.7782658867  -0.0020883100
  0.7710699083   0.3770580883   0.3960053283
  0.6275109133   0.5886363817   0.8413699233
  0.8705545383   0.8105166367   0.7604006117
  0.8734071083   0.4134336150   0.1553199783
  0.1266169667   0.6833144033   0.2266870517
 -0.0270037667  -0.0252411717   0.0041400133
  0.5273504833   0.0201098967  -0.0046033050
  0.4763273667   0.8778662583   0.6061395617
  0.5610945300   0.6213386850   0.4313118200
  0.3779042717   0.8348596600   0.8438630617
  0.6233307067   0.0657036617   0.7742896733
  0.6244208850   0.6616568083   0.1548955550
  0.8765114033  -0.0661094167   0.2293419400
  0.7244335167   0.2281275567   0.0044742567
  0.2751724717   0.2745054083  -0.0042007650
  0.2279525400   0.1299649000   0.6074763567
  0.2718589233   0.8706794200   0.3935257467
  0.1262997483   0.0871534417   0.8439856200
  0.3734694633   0.3164115933   0.7706212133
  0.3740280700  -0.0876352817   0.1554939133
  0.6268665850   0.1838094483   0.2263568367
 -0.0026399800   0.4521872850   0.8043240600
  0.2484936317   0.7021321750   0.8109245983
  0.0004468167   0.0497216500   0.1952173033
  0.2504480033   0.2984390317   0.1918820733
  0.7514345733   0.7054666217   0.8141204533
 -0.0012509600  -0.0492184800   0.8084914133
  0.7501182833   0.3008074900   0.1956899133
  0.0003440300   0.5479064733   0.1904195633
  0.5011372117  -0.0515046317   0.8049929983
  0.7495528250   0.2013150733   0.8103791383
  0.5005841583   0.5478741200   0.1932607150
  0.7502310050   0.7982173117   0.1918308100
  0.2499122633   0.2010362850   0.8053735867
  0.4999907433   0.4519101517   0.8069023783
  0.2514229983   0.7991041867   0.1961861283
  0.5000703250   0.0478093717   0.1917008933
  0.0006971000   0.2506197883  -0.0008761083
  0.2487632883   0.4985838600  -0.0018487783
  0.0046628200   0.3468021400   0.3661874067
  0.2444698450   0.5864983367   0.3665153783
 -0.0045210800   0.1528415850   0.6333200067
  0.2527464700   0.4134166617   0.6332079550
  0.7485077517   0.4980760333  -0.0004933583
  0.0031420050   0.7532506183   0.0056775550
  0.7570925750   0.5968023550   0.3631513717
 -0.0046294233   0.8365323183   0.3676450417
  0.7450557083   0.3984704933   0.6334576667
  0.0093400667   0.6631548817   0.6319104517
  0.4976986583   0.7487152633   0.0028452233
  0.7514053167   0.0047410917   0.0053037700
  0.5054950883   0.8473856867   0.3678950083
  0.7445360083   0.0874578200   0.3670814283
  0.4895048133   0.6539032383   0.6352854383
  0.7553006433  -0.0827347850   0.6320813000
  0.2506146450   0.0004437483  -0.0001600950
  0.4993968333   0.2482479100  -0.0007959250
  0.2550300417   0.0969294267   0.3670205233
  0.4950683600   0.3360552600   0.3679418167
  0.2446270567  -0.0962846433   0.6338173833
  0.5047347133   0.1611869317   0.6338421650
