# Compound: Li2O2S3Fe4. Old comment: Fe4Li2O2S3
  1.0000000000
  3.9257565800   0.0028295700   0.0230777200
 -0.0100941600   3.9257446200   0.0230777200
 -2.0200023100  -2.0266632000  10.1857462200
Li    O     S     Fe
    2     2     3     4
Direct
  0.6067481700   0.7262085600   0.8318341900
  0.2737914400   0.3932518300   0.1681658100
  0.7893302200   0.4079644800   0.1968608900
  0.5920355200   0.2106697800   0.8031391100
  0.0076180400   0.6197188900   0.6292033500
  0.3802811100   0.9923819600   0.3707966500
  0.1905269600   0.8094730400  -0.0000000000
  0.8708182200   0.5164482000   0.3935217000
  0.4835518000   0.1291817800   0.6064783000
  0.1128417200   0.2319392000   0.8454277700
  0.7680608000   0.8871582800   0.1545722300
