# Compound: Fe32Li31O16S32. Old comment:
   1.0000000000000000     
     7.6911861600000000   -7.6885056399999998    0.0000000100000000
     7.6884112800000004    7.6911136200000003   -0.0126780500000000
    -3.8335882400000001   -3.8349345399999999   12.8627506399999998
   Fe   Li   O    S 
    32    31    16    32
Direct
  0.9744164474999977  0.0808450808000032  0.1596817977999976
  0.2235466747000032  0.3302196492999983  0.1599618783000025
  0.7236011020000035  0.3284864045999996  0.1587843734999979
  0.9759223900000009  0.5801887299000015  0.1578516785000019
  0.9641148428000008  0.4329437916999979  0.3469819410999975
  0.2262190933999975  0.6698766609000018  0.3413070482000009
  0.7326114788000027  0.6665628224000031  0.3459946902000013
  0.9741632738000021  0.9220109176999998  0.3411629224000023
  0.9742068611000008  0.0808802080000035  0.6588255463000010
  0.2237880571000019  0.3301282998999966  0.6587154314999992
  0.7263579500000006  0.3270213428999966  0.6589770061000024
  0.9640951912000020  0.5860605490999973  0.6530160637000009
  0.9744148755999973  0.4211641906999972  0.8403084313999969
  0.2235483243999994  0.6702449203000000  0.8400408162000019
  0.7235965683999979  0.6696790594999982  0.8412188455999967
  0.9759020227999997  0.9223316173000029  0.8421452732999981
  0.4753406844999972  0.5811763449000011  0.1595225813999974
  0.7246714200000000  0.8294148088999975  0.1590642083999967
  0.2245939335000031  0.8293403739000027  0.1585016439000029
  0.4750594881000012  0.0799643269999990  0.1591698232000027
  0.4751605030999997  0.9199051943000001  0.3409430920000034
  0.7263399574000005  0.1681247032000002  0.3410339723999982
  0.2237442082999976  0.1714014086999995  0.3412799114000009
  0.4747479522999996  0.4229613798000003  0.3415335257000010
  0.4747525201999991  0.5813815798000022  0.6584649694000007
  0.7325853871000021  0.8205063218999982  0.6540025122000017
  0.2262050487999971  0.8286309944000010  0.6586999925999990
  0.4751656151999981  0.0789863095999976  0.6590569518999985
  0.4753123006000024  0.9216395054000017  0.8404687096000032
  0.7246666866999973  0.1703000524999965  0.8409339796000026
  0.2245866720000009  0.1708039756999966  0.8415021328000023
  0.4750450188000030  0.4207607335000034  0.8408314914000030
  0.0812257971999983  0.1448969035999994  0.0014373059999997
  0.8688215454999977  0.8555766735999981  0.9993603711999981
  0.8688182892000000  0.3562083469999990  0.0006103978999974
  0.0812278152000019  0.6434629740000020  0.9985695523999993
  0.1177601400000015  0.3935520674000017  0.5000361219999974
  0.3451975002000012  0.6176804755000020  0.5000201564999998
  0.6204816286999986  0.6128846774999985  0.4999943047999977
  0.6052106746000021  0.3753954980999978  0.5000126986000026
  0.0819205371999985  0.1427866460999994  0.4999921917000023
  0.8728467370999979  0.8486622033000017  0.5000158279000004
  0.8579192919999983  0.3695668749000021  0.5000239510000029
  0.0786116161999999  0.6448106803999991  0.4999940359999968
  0.1184723906999992  0.3940045184000027  0.9993020504999990
  0.3322198051000029  0.6078662310999974  0.9994892846000027
  0.8303380258000033  0.6056852453000019  0.0006535237999969
  0.6178540542000022  0.3932256830999989  0.0006285199999994
  0.5810673635999990  0.6436710147999989  0.9998835212999992
  0.3674152470999985  0.3585964725999986  0.0010783780999972
  0.3674257147999995  0.8575136587000003  0.9989307626999988
  0.5810666140000009  0.1437932458999995  0.0001254905999986
  0.6094478373000030  0.8819060273999995  0.5000120735999971
  0.8338983654999979  0.1063587478000017  0.4999876831000023
  0.3365425555999977  0.1124222982999967  0.4999820017999994
  0.1193081390999993  0.8948445783999972  0.4999844004999972
  0.3616727620999995  0.3643244981999985  0.4999753013999992
  0.3640324176000007  0.8612655388999997  0.5000017245999970
  0.5888955261000035  0.1330312603000010  0.4999901954000023
  0.6178462984000035  0.8925900588999980  0.9993661696999965
  0.8303419721000012  0.1050400458000027  0.9993513240999974
  0.3322186919000032  0.1083865606999979  0.0005278591000035
  0.1184749578999984  0.8947046522999997  0.0006979435000005
  0.2240330046999972  0.2508575216999986  0.4999980978000025
  0.4752825958999978  0.5005979358999966  0.0003353180999994
  0.9746655391000019  0.5001982970999990  0.9994235527000015
  0.2244124674000005  0.7510116736999990  0.5000015307999988
  0.2243132556999967  0.2511781480000010  0.0007621665000030
  0.4794179041000035  0.4993674309000014  0.4999985281000008
  0.9804349646000006  0.4979180803000034  0.5000039835000010
  0.2243133950999976  0.7504190403000024  0.9992410449999980
  0.7252921138999966  0.7532212835999985  0.5000008451999989
  0.9746640633999988  0.0007689651000007  0.0005709994999989
  0.4752806115999988  0.0002656341000034  0.9996645872000016
  0.7256181994000030  0.2474739979000020  0.5000038880000020
  0.7252135525000014  0.7493114560000009  0.9999774338999998
  0.9749762328999978  0.9980923350000026  0.4999943489999978
  0.4743370039999988  0.9987884901999990  0.4999993357999983
  0.7252130234000020  0.2493325092000021  0.0000220302000002
  0.9751498842000004  0.3286035559000027  0.1558423576000010
  0.2254103161999979  0.5766814030000020  0.1516234639000018
  0.7253698569000022  0.5766095656999966  0.1550136413000018
  0.9751214014999974  0.8257437302999975  0.1510999644999984
  0.9741473533999994  0.1718953208999991  0.3480222701999978
  0.2307250013000015  0.4249583389999998  0.3486088327999965
  0.7242660359000013  0.4199004341000006  0.3473286946000016
  0.9784270239999984  0.6752771339000034  0.3460335914000012
  0.9741541202999997  0.3238536826000029  0.6519724282999988
  0.2307343306000007  0.5763527666000030  0.6513978317999971
  0.7242617725000002  0.5725706447000007  0.6526732055000011
  0.9784342708000011  0.8292515615000013  0.6539650013000013
  0.9751255318999981  0.1746389127999990  0.8488940152000026
  0.2252244714999989  0.4247043721000026  0.8482146164000000
  0.7244929992999971  0.4235508001999975  0.8488953490999975
  0.9751497669999978  0.6727599585000021  0.8441504541000029
  0.4744536346999979  0.8261330265000026  0.1511438583000029
  0.7244909770000021  0.0746580104000003  0.1511085035999997
  0.2252188201999985  0.0764877892000015  0.1517840348999968
  0.4754743884999968  0.3257625743000006  0.1518920489000024
  0.4743028952999992  0.6738116050999992  0.3482945579999992
  0.7238897722000033  0.9244245913000029  0.3475696523000025
  0.2254566956000019  0.9252468641000036  0.3479349277999972
  0.4748790602000028  0.1733576294000017  0.3490828057000002
  0.4743088033999996  0.8255122491000009  0.6517020842999983
  0.7238895544000030  0.0768542424000032  0.6524289780000032
  0.2254578471000031  0.0773022978999975  0.6520613149999974
  0.4748782842999972  0.3242769459000030  0.6509149309000009
  0.4754774613999970  0.6738730328999978  0.8481097136999978
  0.7253724828999992  0.9215939584000026  0.8449850475000034
  0.2254136872999979  0.9250672849000026  0.8483806042999973
  0.4744521695999993  0.1749951434999986  0.8488550279000009

             NaN             NaN             NaN
             NaN             NaN             NaN
             NaN             NaN             NaN
             NaN             NaN             NaN
             NaN             NaN             NaN
             NaN             NaN             NaN
             NaN             NaN             NaN
             NaN             NaN             NaN
             NaN             NaN             NaN
             NaN             NaN             NaN
             NaN             NaN             NaN
             NaN             NaN             NaN
             NaN             NaN             NaN
             NaN             NaN             NaN
             NaN             NaN             NaN
             NaN             NaN             NaN
             NaN             NaN             NaN
             NaN             NaN             NaN
             NaN             NaN             NaN
             NaN             NaN             NaN
             NaN             NaN             NaN
             NaN             NaN             NaN
             NaN             NaN             NaN
             NaN             NaN             NaN
             NaN             NaN             NaN
             NaN             NaN             NaN
             NaN             NaN             NaN
             NaN             NaN             NaN
             NaN             NaN             NaN
             NaN             NaN             NaN
             NaN             NaN             NaN
             NaN             NaN             NaN
             NaN             NaN             NaN
             NaN             NaN             NaN
             NaN             NaN             NaN
             NaN             NaN             NaN
             NaN             NaN             NaN
             NaN             NaN             NaN
             NaN             NaN             NaN
             NaN             NaN             NaN
             NaN             NaN             NaN
             NaN             NaN             NaN
             NaN             NaN             NaN
             NaN             NaN             NaN
             NaN             NaN             NaN
             NaN             NaN             NaN
             NaN             NaN             NaN
             NaN             NaN             NaN
             NaN             NaN             NaN
             NaN             NaN             NaN
             NaN             NaN             NaN
             NaN             NaN             NaN
             NaN             NaN             NaN
             NaN             NaN             NaN
             NaN             NaN             NaN
             NaN             NaN             NaN
             NaN             NaN             NaN
             NaN             NaN             NaN
             NaN             NaN             NaN
             NaN             NaN             NaN
             NaN             NaN             NaN
             NaN             NaN             NaN
             NaN             NaN             NaN
             NaN             NaN             NaN
             NaN             NaN             NaN
             NaN             NaN             NaN
             NaN             NaN             NaN
             NaN             NaN             NaN
             NaN             NaN             NaN
             NaN             NaN             NaN
             NaN             NaN             NaN
             NaN             NaN             NaN
             NaN             NaN             NaN
             NaN             NaN             NaN
             NaN             NaN             NaN
             NaN             NaN             NaN
             NaN             NaN             NaN
             NaN             NaN             NaN
             NaN             NaN             NaN
             NaN             NaN             NaN
             NaN             NaN             NaN
             NaN             NaN             NaN
             NaN             NaN             NaN
             NaN             NaN             NaN
             NaN             NaN             NaN
             NaN             NaN             NaN
             NaN             NaN             NaN
             NaN             NaN             NaN
             NaN             NaN             NaN
             NaN             NaN             NaN
             NaN             NaN             NaN
             NaN             NaN             NaN
             NaN             NaN             NaN
             NaN             NaN             NaN
             NaN             NaN             NaN
             NaN             NaN             NaN
             NaN             NaN             NaN
             NaN             NaN             NaN
             NaN             NaN             NaN
             NaN             NaN             NaN
             NaN             NaN             NaN
             NaN             NaN             NaN
             NaN             NaN             NaN
             NaN             NaN             NaN
             NaN             NaN             NaN
             NaN             NaN             NaN
             NaN             NaN             NaN
             NaN             NaN             NaN
             NaN             NaN             NaN
             NaN             NaN             NaN
             NaN             NaN             NaN
