# Compound: Fe32Li31O16S32. Old comment: Fe32Li31O16S32
  1.0000000000
  7.6911861600  -7.6885056400   0.0000000100
  7.6884112800   7.6911136200  -0.0126780500
 -3.8335882400  -3.8349345400  12.8627506400
Fe    Li    O     S
   32    31    16    32
Direct
  0.9744164475   0.0808450808   0.1596817978
  0.2235466747   0.3302196493   0.1599618783
  0.7236011020   0.3284864046   0.1587843735
  0.9759223900   0.5801887299   0.1578516785
  0.9641148428   0.4329437917   0.3469819411
  0.2262190934   0.6698766609   0.3413070482
  0.7326114788   0.6665628224   0.3459946902
  0.9741632738   0.9220109177   0.3411629224
  0.9742068611   0.0808802080   0.6588255463
  0.2237880571   0.3301282999   0.6587154315
  0.7263579500   0.3270213429   0.6589770061
  0.9640951912   0.5860605491   0.6530160637
  0.9744148756   0.4211641907   0.8403084314
  0.2235483244   0.6702449203   0.8400408162
  0.7235965684   0.6696790595   0.8412188456
  0.9759020228   0.9223316173   0.8421452733
  0.4753406845   0.5811763449   0.1595225814
  0.7246714200   0.8294148089   0.1590642084
  0.2245939335   0.8293403739   0.1585016439
  0.4750594881   0.0799643270   0.1591698232
  0.4751605031   0.9199051943   0.3409430920
  0.7263399574   0.1681247032   0.3410339724
  0.2237442083   0.1714014087   0.3412799114
  0.4747479523   0.4229613798   0.3415335257
  0.4747525202   0.5813815798   0.6584649694
  0.7325853871   0.8205063219   0.6540025122
  0.2262050488   0.8286309944   0.6586999926
  0.4751656152   0.0789863096   0.6590569519
  0.4753123006   0.9216395054   0.8404687096
  0.7246666867   0.1703000525   0.8409339796
  0.2245866720   0.1708039757   0.8415021328
  0.4750450188   0.4207607335   0.8408314914
  0.0812257972   0.1448969036   0.0014373060
  0.8688215455   0.8555766736   0.9993603712
  0.8688182892   0.3562083470   0.0006103979
  0.0812278152   0.6434629740   0.9985695524
  0.1177601400   0.3935520674   0.5000361220
  0.3451975002   0.6176804755   0.5000201565
  0.6204816287   0.6128846775   0.4999943048
  0.6052106746   0.3753954981   0.5000126986
  0.0819205372   0.1427866461   0.4999921917
  0.8728467371   0.8486622033   0.5000158279
  0.8579192920   0.3695668749   0.5000239510
  0.0786116162   0.6448106804   0.4999940360
  0.1184723907   0.3940045184   0.9993020505
  0.3322198051   0.6078662311  -0.0005107154
  0.8303380258   0.6056852453   0.0006535238
  0.6178540542   0.3932256831   0.0006285200
  0.5810673636   0.6436710148   0.9998835213
  0.3674152471   0.3585964726   0.0010783781
  0.3674257148   0.8575136587   0.9989307627
  0.5810666140   0.1437932459   0.0001254906
  0.6094478373   0.8819060274   0.5000120736
  0.8338983655   0.1063587478   0.4999876831
  0.3365425556   0.1124222983   0.4999820018
  0.1193081391   0.8948445784   0.4999844005
  0.3616727621   0.3643244982   0.4999753014
  0.3640324176   0.8612655389   0.5000017246
  0.5888955261   0.1330312603   0.4999901954
  0.6178462984   0.8925900589   0.9993661697
  0.8303419721   0.1050400458   0.9993513241
  0.3322186919   0.1083865607   1.0005278591
  0.1184749579   0.8947046523   0.0006979435
  0.2240330047   0.2508575217   0.4999980978
  0.4752825959   0.5005979359   0.0003353181
  0.9746655391   0.5001982971   0.9994235527
  0.2244124674   0.7510116737   0.5000015308
  0.2243132557   0.2511781480   0.0007621665
  0.4794179041   0.4993674309   0.4999985281
  0.9804349646   0.4979180803   0.5000039835
  0.2243133951   0.7504190403   0.9992410450
  0.7252921139   0.7532212836   0.5000008452
  0.9746640634   0.0007689651   0.0005709995
  0.4752806116   1.0002656341   0.9996645872
  0.7256181994   0.2474739979   0.5000038880
  0.7252135525   0.7493114560  -0.0000225661
  0.9749762329   0.9980923350   0.4999943490
  0.4743370040  -0.0012115098   0.4999993358
  0.7252130234   0.2493325092   1.0000220302
  0.9751498842   0.3286035559   0.1558423576
  0.2254103162   0.5766814030   0.1516234639
  0.7253698569   0.5766095657   0.1550136413
  0.9751214015   0.8257437303   0.1510999645
  0.9741473534   0.1718953209   0.3480222702
  0.2307250013   0.4249583390   0.3486088328
  0.7242660359   0.4199004341   0.3473286946
  0.9784270240   0.6752771339   0.3460335914
  0.9741541203   0.3238536826   0.6519724283
  0.2307343306   0.5763527666   0.6513978318
  0.7242617725   0.5725706447   0.6526732055
  0.9784342708   0.8292515615   0.6539650013
  0.9751255319   0.1746389128   0.8488940152
  0.2252244715   0.4247043721   0.8482146164
  0.7244929993   0.4235508002   0.8488953491
  0.9751497670   0.6727599585   0.8441504541
  0.4744536347   0.8261330265   0.1511438583
  0.7244909770   0.0746580104   0.1511085036
  0.2252188202   0.0764877892   0.1517840349
  0.4754743885   0.3257625743   0.1518920489
  0.4743028953   0.6738116051   0.3482945580
  0.7238897722   0.9244245913   0.3475696523
  0.2254566956   0.9252468641   0.3479349278
  0.4748790602   0.1733576294   0.3490828057
  0.4743088034   0.8255122491   0.6517020843
  0.7238895544   0.0768542424   0.6524289780
  0.2254578471   0.0773022979   0.6520613150
  0.4748782843   0.3242769459   0.6509149309
  0.4754774614   0.6738730329   0.8481097137
  0.7253724829   0.9215939584   0.8449850475
  0.2254136873   0.9250672849   0.8483806043
  0.4744521696   0.1749951435   0.8488550279
