# Compound: Li4O2S2Fe2. Old comment: FeL
   1.00000000000000     
     3.9119090800000000   -0.0191476200000000    0.0000000000000000
     0.0274039400000000    5.6091674500000002    0.0000000000000000
     0.0000000000000000    0.0000000000000000    5.5978100499999996
   Li   O    S    Fe
     4     2     2     2
Direct
  0.1062511700000002  0.7255509399999980  0.7129629699999995
  0.1062511700000002  0.2255509399999980  0.2870370300000005
  0.6062837500000029  0.4379611999999966  0.5449242999999981
  0.6062837500000029  0.9379611999999966  0.4550757000000019
  0.6062719299999983  0.7353847500000015  0.7475301799999983
  0.6062719299999983  0.2353847500000015  0.2524698200000017
  0.1062825300000014  0.7402389299999967  0.2405889500000029
  0.1062825300000014  0.2402389299999967  0.7594110499999971
  0.6062816100000035  0.0245061800000030  0.9600692499999965
  0.6062816100000035  0.5245061800000030  0.0399307500000035
 
  0.00000000E+00  0.00000000E+00  0.00000000E+00
  0.00000000E+00  0.00000000E+00  0.00000000E+00
  0.00000000E+00  0.00000000E+00  0.00000000E+00
  0.00000000E+00  0.00000000E+00  0.00000000E+00
  0.00000000E+00  0.00000000E+00  0.00000000E+00
  0.00000000E+00  0.00000000E+00  0.00000000E+00
  0.00000000E+00  0.00000000E+00  0.00000000E+00
  0.00000000E+00  0.00000000E+00  0.00000000E+00
  0.00000000E+00  0.00000000E+00  0.00000000E+00
  0.00000000E+00  0.00000000E+00  0.00000000E+00
