# Compound: Fe24Li31O16S24. Old comment:
   1.0000000000000000     
     7.8866538400000001   -7.9475566999999998    0.0601846200000000
     7.3433505600000002    7.9467915400000004   -2.8792872599999999
    -0.0478291200000000   -0.1071026000000000   10.5527142699999992
   Fe   Li   O    S 
    24    31    16    24
Direct
  0.2574020338577936  0.6635933849240903  0.6041073223378246
  0.2324488570723548  0.3335210350430653  0.3988436812910114
  0.1225471187136099  0.3249101795713602  0.8029770000753783
  0.3722154927769541  0.5793652118263511  0.8218485759794834
  0.8757469919507231  0.1758534206847556  0.1959464150579625
  0.1263195774876410  0.4212540726132405  0.1823607518877663
  0.0174985101568168  0.9164523307840511  0.6011605359157750
  0.9926019046485671  0.5864198229507569  0.3958950206710354
  0.8665290922901762  0.5716408730510412  0.7899114773407334
  0.1237054581599702  0.8287788541174601  0.8176490835582602
  0.6254068958946082  0.4296318086549243  0.2021577863599982
  0.8778109626963456  0.6706801012210433  0.1781676335696319
  0.7638871721002792  0.1666217248773935  0.6011018481618112
  0.7425284463016679  0.8369583242356747  0.3956969382301007
  0.6246343062038333  0.8203928016281309  0.7977800184931633
  0.8735772025396012  0.0772198811199345  0.8137884483346802
  0.3834920361539561  0.6783976849002995  0.2100922841581956
  0.6241381786318598  0.9199706748114976  0.1860788653568650
  0.5073192671164366  0.4128933102775464  0.6043543090716574
  0.4861063619954620  0.0833638895859759  0.3989010595720722
  0.3742661019999989  0.0741463657757638  0.8040344571683773
  0.6258844637418131  0.3300739653914855  0.8139539056302426
  0.1274608819667911  0.9250996288286838  0.1970171920572023
  0.3764525863676569  0.1728224937476548  0.1862262750051704
  0.4710885416550351  0.4708474235839185  0.0034398239625890
  0.0212422258995456  0.5241013694317777  0.9919198828248901
  0.9759759749373267  0.3772664153743803  0.6055737550936373
  0.0224970299463011  0.1203572117816942  0.3918105160912871
  0.8749009730181446  0.3370459281390845  0.8439524024706365
  0.1206866215885484  0.5662554114628597  0.7765174963024365
  0.1248231071656614  0.1633077889813001  0.1549463740512113
  0.3811228055367508  0.4422338322915110  0.2433949328325351
  0.2287570721644265  0.7259024291432955  0.0080787673910638
  0.7788853885481913  0.7791699567547449  0.9965753538522294
  0.7761381279862682  0.3732463325462128  0.3932462491915136
  0.6246848374962690  0.5893025872937405  0.8436620128785325
  0.8688994488663638  0.8078058879586982  0.7566545292306621
  0.8736159984275856  0.4154901955834887  0.1557591458955815
  0.1293248479989529  0.6837574048072160  0.2234781379082339
  0.9738612793003928  0.9760705235492333  0.0028375141279261
  0.5260265003582191  0.0207488183125527  0.9958536125254054
  0.4738415210085326  0.8766189428769631  0.6067092897393151
  0.6249409278456536  0.6243453747689367  0.4999235720207103
  0.3764096457354861  0.8345284565690521  0.8442540829844971
  0.6216828481338093  0.0664906683847658  0.7732184950213246
  0.6253238325110245  0.6607146368732834  0.1563070195096978
  0.8786620180821304  0.9343435806854217  0.2245772613477444
  0.7239782438728247  0.2292417555444732  0.0041360012001426
  0.2761315505081344  0.2739174632960970  0.9971755247150328
  0.2274866843256486  0.1296171127038538  0.6081935916171792
  0.2739577549511714  0.8726987568607083  0.3944282508033970
  0.1251883657136650  0.0866994943554157  0.8450615448712393
  0.3713255878882047  0.3156777246956455  0.7755045847353847
  0.3751104294220866  0.9129814530135987  0.1560677139189792
  0.6283275153504111  0.1835308067114560  0.2267616811944382
  0.9958433178349706  0.4505802103129132  0.8021125942793222
  0.2461396352670477  0.7019636502271063  0.8140689955297602
  0.0016299209041060  0.0502721982540581  0.1937364991646662
  0.2522277518849951  0.3002611999895353  0.1931371292594030
  0.7497753716187958  0.7053766694397930  0.8146893771172800
  0.9977885988020226  0.9497659204074469  0.8068965434650651
  0.7501598710997717  0.3007776928985348  0.1947420405364937
  0.0038703694111293  0.5480542175227349  0.1859390373270536
  0.4998595239592892  0.9492385558368860  0.8052245396265642
  0.7491605191490642  0.2011259358074121  0.8079139831475156
  0.5002389014733519  0.5446478381351666  0.1853082153493324
  0.7521948372384086  0.7985930232931022  0.1890079752358339
  0.2483747864555099  0.1997290826540768  0.8062632159538830
  0.4978014795098856  0.4514309999415463  0.8110374937719960
  0.2541637552777066  0.7994287467145782  0.1978676365669327
  0.5008525814442232  0.0489175917485188  0.1921008679805292
 -0.0001404950278637  0.2493828450312236  0.9991603085123880
  0.2458257096276830  0.4957373976517186  0.9939699095882832
  0.0058029692950271  0.3466256375056234  0.3654117226667519
  0.2399996754634298  0.5879985469221856  0.3681298050055726
  0.9944209660941872  0.1524361464581252  0.6325576282751902
  0.2541022368195489  0.4123434394143354  0.6329324358887010
  0.7510618237520641  0.4979665779589882  0.9963285618082771
  0.0041664917728991  0.7542525289748772  0.0060092663024347
  0.7706484789577358  0.5945518360495102  0.3528455181164277
  0.9959512931074709  0.8376717418165840  0.3670571443371035
  0.7407369504081321  0.4003804992973191  0.6303723557144905
  0.0100198044282552  0.6620454989625202  0.6318701042769521
  0.4989487095701522  0.7520586368468972  0.0036850602114918
  0.7511816038623719  0.0047868478926691  0.0033179344270361
  0.5092399593457059  0.8496818716708753  0.3696249418943508
  0.7469962998127643  0.0860363555623113  0.3664188503787835
  0.4793648997227183  0.6555069051811026  0.6471779204261843
  0.7521541068201515  0.9135451281780589  0.6308956859691831
  0.2501647115568298  1.0006418311928620  0.0008477786103980
  0.4988214763057473  0.2452270439329812  0.9966886956586337
  0.2555933999963229  0.0975862230941609  0.3674523995693582
  0.4979385973750769  0.3365679169459599  0.3691298010304050
  0.2441951260087592  0.9033933838499785  0.6346005469022765
  0.5030207309391200  0.1640442797057867  0.6335785480168868

             NaN             NaN             NaN
             NaN             NaN             NaN
             NaN             NaN             NaN
             NaN             NaN             NaN
             NaN             NaN             NaN
             NaN             NaN             NaN
             NaN             NaN             NaN
             NaN             NaN             NaN
             NaN             NaN             NaN
             NaN             NaN             NaN
             NaN             NaN             NaN
             NaN             NaN             NaN
             NaN             NaN             NaN
             NaN             NaN             NaN
             NaN             NaN             NaN
             NaN             NaN             NaN
             NaN             NaN             NaN
             NaN             NaN             NaN
             NaN             NaN             NaN
             NaN             NaN             NaN
             NaN             NaN             NaN
             NaN             NaN             NaN
             NaN             NaN             NaN
             NaN             NaN             NaN
             NaN             NaN             NaN
             NaN             NaN             NaN
             NaN             NaN             NaN
             NaN             NaN             NaN
             NaN             NaN             NaN
             NaN             NaN             NaN
             NaN             NaN             NaN
             NaN             NaN             NaN
             NaN             NaN             NaN
             NaN             NaN             NaN
             NaN             NaN             NaN
             NaN             NaN             NaN
             NaN             NaN             NaN
             NaN             NaN             NaN
             NaN             NaN             NaN
             NaN             NaN             NaN
             NaN             NaN             NaN
             NaN             NaN             NaN
             NaN             NaN             NaN
             NaN             NaN             NaN
             NaN             NaN             NaN
             NaN             NaN             NaN
             NaN             NaN             NaN
             NaN             NaN             NaN
             NaN             NaN             NaN
             NaN             NaN             NaN
             NaN             NaN             NaN
             NaN             NaN             NaN
             NaN             NaN             NaN
             NaN             NaN             NaN
             NaN             NaN             NaN
             NaN             NaN             NaN
             NaN             NaN             NaN
             NaN             NaN             NaN
             NaN             NaN             NaN
             NaN             NaN             NaN
             NaN             NaN             NaN
             NaN             NaN             NaN
             NaN             NaN             NaN
             NaN             NaN             NaN
             NaN             NaN             NaN
             NaN             NaN             NaN
             NaN             NaN             NaN
             NaN             NaN             NaN
             NaN             NaN             NaN
             NaN             NaN             NaN
             NaN             NaN             NaN
             NaN             NaN             NaN
             NaN             NaN             NaN
             NaN             NaN             NaN
             NaN             NaN             NaN
             NaN             NaN             NaN
             NaN             NaN             NaN
             NaN             NaN             NaN
             NaN             NaN             NaN
             NaN             NaN             NaN
             NaN             NaN             NaN
             NaN             NaN             NaN
             NaN             NaN             NaN
             NaN             NaN             NaN
             NaN             NaN             NaN
             NaN             NaN             NaN
             NaN             NaN             NaN
             NaN             NaN             NaN
             NaN             NaN             NaN
             NaN             NaN             NaN
             NaN             NaN             NaN
             NaN             NaN             NaN
             NaN             NaN             NaN
             NaN             NaN             NaN
             NaN             NaN             NaN
