# Compound: Fe24Li31O16S24. Old comment: Li4Fe3S3O2 Enum Minimum PATH3 INIT FRAME 03
  1.0000000000
  7.8866538400  -7.9475567000   0.0601846200
  7.3433505600   7.9467915400  -2.8792872600
 -0.0478291200  -0.1071026000  10.5527142700
Fe    Li    O     S
   24    31    16    24
Direct
  0.2658601450   0.6648272600   0.6018253400
  0.2344287250   0.3341789850   0.3985548850
  0.1240185750   0.3258409950   0.8027464500
  0.3761087100   0.5801939850   0.8154193850
  0.8746177700   0.1756548800   0.1978722400
  0.1247723400   0.4211280600   0.1842780550
  0.0153606650  -0.0843497700   0.6015141350
 -0.0160713300   0.5852367500   0.3981944800
  0.8709379200   0.5739657600   0.7945093750
  0.1252487950   0.8289922200   0.8157286400
  0.6249658450   0.4294016300   0.2039900200
  0.8740402850   0.6699045750   0.1847230350
  0.7645832950   0.1636986100   0.6014978550
  0.7317950050   0.8285479100   0.3991104150
  0.6251118400   0.8206128450   0.7962229100
  0.8756054100   0.0796444850   0.8161980050
  0.3789606800   0.6760949300   0.2053985950
  0.6244133700  -0.0790028450   0.1870639700
  0.5181263550   0.4212206100   0.6009350250
  0.4855346400   0.0862613750   0.3984077300
  0.3755278300   0.0742714250   0.8017681750
  0.6257535200   0.3291415850   0.8129972800
  0.1259771550  -0.0757608650   0.1970354550
  0.3744584900   0.1704654350   0.1838523050
  0.4739262000   0.4738911400   0.0024607900
  0.0224365150   0.5252289850  -0.0053627450
 -0.0221223950   0.3784631050   0.6062384500
  0.0221546400   0.1202176500   0.3926732600
  0.8751453550   0.3381677100   0.8440103900
  0.1227905950   0.5667289800   0.7736692450
  0.1235777600   0.1629164550   0.1555541300
  0.3787281600   0.4373274450   0.2352349450
  0.2274461600   0.7248094750   0.0053465850
  0.7759698750   0.7758355600  -0.0023444100
  0.7725530450   0.3745312050   0.3948379450
  0.6265244000   0.5884693650   0.8433472700
  0.8713000750   0.8128336300   0.7651137350
  0.8727512050   0.4143341650   0.1556967550
  0.1273088200   0.6832994500   0.2262949750
 -0.0262054600  -0.0249221150   0.0042093600
  0.5264961700   0.0209800100  -0.0045487150
  0.4776330800   0.8752057750   0.6050265050
  0.6247687900   0.6249330350   0.4999594000
  0.3772178550   0.8357515800   0.8443303450
  0.6232129600   0.0659439050   0.7738643200
  0.6234402150   0.6614384250   0.1566444850
  0.8765712500  -0.0661711700   0.2295892800
  0.7235521900   0.2290112300   0.0044926100
  0.2760758950   0.2748722850  -0.0042158150
  0.2276855400   0.1296678000   0.6071860100
  0.2720184300   0.8715503800   0.3936432400
  0.1264370450   0.0870816850   0.8445251400
  0.3734839100   0.3162436800   0.7704987600
  0.3749001300  -0.0881545250   0.1559884400
  0.6268360150   0.1840739650   0.2259873500
 -0.0020285600   0.4515792350   0.8041071600
  0.2490886750   0.7020773650   0.8102881150
  0.0002712900   0.0493462300   0.1948156700
  0.2508720500   0.2988853750   0.1917751600
  0.7504099400   0.7037910050   0.8104527200
 -0.0008746600  -0.0488146600   0.8084619200
  0.7495458700   0.3011765300   0.1952598200
  0.0009123100   0.5479030000   0.1896839900
  0.5005267150  -0.0511573550   0.8046713350
  0.7497219150   0.2017513400   0.8093784150
  0.4995699950   0.5461724800   0.1895257050
  0.7501178750   0.7981356750   0.1924642500
  0.2497639300   0.2006781150   0.8050629600
  0.4997976500   0.4518295550   0.8075984750
  0.2520863150   0.7984699000   0.1958734050
  0.5003002750   0.0482235150   0.1906106800
  0.0000319800   0.2500850050  -0.0004226250
  0.2477960650   0.4977314000  -0.0036188550
  0.0049780000   0.3465840800   0.3661065200
  0.2424789750   0.5867371700   0.3672414550
 -0.0047847600   0.1529211350   0.6331593200
  0.2537085300   0.4134441050   0.6327267450
  0.7503528150   0.4996819000  -0.0016085950
  0.0022234150   0.7523690150   0.0037576050
  0.7588124450   0.5964146850   0.3640511550
 -0.0036062100   0.8365776150   0.3672468450
  0.7447650050   0.4005669200   0.6327837000
  0.0075212200   0.6633970850   0.6327222150
  0.4996090950   0.7503035900   0.0017362900
  0.7510141500   0.0032273350   0.0029760900
  0.5051880650   0.8495076800   0.3672983250
  0.7449366050   0.0882373800   0.3665451250
  0.4911337800   0.6534715350   0.6361537150
  0.7551493500  -0.0843810950   0.6320517200
  0.2499782550  -0.0000945950   0.0003572350
  0.4990103800   0.2467458900  -0.0029661750
  0.2548110050   0.0969932800   0.3668200100
  0.4949662400   0.3342847600   0.3678623100
  0.2449438500  -0.0965397100   0.6338212500
  0.5051496800   0.1619554150   0.6333730150
