# Compound: Li4Fe2S2O2. Old comment: Fe2Li4O2S2
  1.0000000000
  3.8876181400  -0.0190546400   0.0000000000
  0.0271694700   5.5454705900   0.0000000000
  0.0000000000   0.0000000000   5.5391757800
Li    Fe    S     O
    4     2     2     2
Direct
  0.1064969800   0.7266250000   0.7141142600
  0.1064969800   0.2266250000   0.2858857400
  0.6074911300   0.4365808300   0.5459445100
  0.6074911300   0.9365808300   0.4540554900
  0.6055178400   0.0261827500   0.9581224900
  0.6055178400   0.5261827500   0.0418775100
  0.1057339800   0.7390612700   0.2406067400
  0.1057339800   0.2390612700   0.7593932600
  0.6061310700   0.7351921500   0.7500115000
  0.6061310700   0.2351921500   0.2499885000
