# Compound: Li2OS2Fe2. Old comment: Fe2L
   1.00000000000000     
     5.4180809551003311    0.0000000896646370   -0.0071645153134601
     2.7090366121471545    2.7101151988090821   -0.0035822582001222
     2.7090043295360862    0.0000004498413458    6.2971812353451719
   Li   O    S    Fe
     2     1     2     2
Direct
  0.0554108925665660  0.3928365886467531  0.9996869507636862
  0.5517525187866809  0.3928365886467531  0.0003130492363138
  0.0525504265131814  0.8949001569736355  0.0000000000000000
  0.7035980364907088  0.8923879423810666  0.7000067943068125
  0.4040140211282247  0.8923879423810666  0.2999932056931876
  0.2042220574902295  0.9046088954853654  0.6812648447259818
  0.8911690370244044  0.9046088954853654  0.3187351552740181
 
  0.00000000E+00  0.00000000E+00  0.00000000E+00
  0.00000000E+00  0.00000000E+00  0.00000000E+00
  0.00000000E+00  0.00000000E+00  0.00000000E+00
  0.00000000E+00  0.00000000E+00  0.00000000E+00
  0.00000000E+00  0.00000000E+00  0.00000000E+00
  0.00000000E+00  0.00000000E+00  0.00000000E+00
  0.00000000E+00  0.00000000E+00  0.00000000E+00
