# No comment
0
Gamma
            6             8             4
  0.000000000   0.000000000   0.000000000
