# Compound: Li2OS2Fe2. Old comment: Fe2Li2OS2
  1.0000000000
  5.4177555500   0.0000000900  -0.0079197000
  2.7088739100   2.7099770400  -0.0039598500
  2.7079650600   0.0000004500   6.2972132900
Li    O     S     Fe
    2     1     2     2
Direct
  0.0554866400   0.3927842100   0.9996630900
  0.5517291500   0.3927842100   0.0003369100
  0.0525541400   0.8948927300   0.0000000000
  0.7036456500   0.8923246000   0.6997822800
  0.4040297500   0.8923246000   0.3002177200
  0.2039643500   0.9047283300   0.6813278700
  0.8913073100   0.9047283300   0.3186721300
