# Compound: Li18O18S27Fe36. Old comment:
   1.00000000000000     
    11.7772697399999995    0.0084887100000000    0.0692331600000000
    -0.0302824800000000   11.7772338600000008    0.0692331600000000
    -2.0200023100000002   -2.0266632000000002   10.1857462200000004
   Li   O    S    Fe
    18    18    27    36
Direct
  0.2022493899999986  0.2420695200000011  0.8308890137999967
  0.5355827233000028  0.2420695200000011  0.8318341900000021
  0.8689160567000016  0.2420695200000011  0.8318341900000021
  0.2022493899999986  0.5754028532999982  0.8318341900000021
  0.5355827233000028  0.5754028532999982  0.8318341900000021
  0.8689160567000016  0.5754028532999982  0.8318341900000021
  0.2022493899999986  0.9087361866999970  0.8318341900000021
  0.5355827233000028  0.9087361866999970  0.8318341900000021
  0.8689160567000016  0.9087361866999970  0.8318341900000021
  0.0912638133000030  0.1310839432999984  0.1681658099999979
  0.4245971467000018  0.1310839432999984  0.1681658099999979
  0.7579304799999989  0.1310839432999984  0.1681658099999979
  0.0912638133000030  0.4644172766999972  0.1681658099999979
  0.4245971467000018  0.4644172766999972  0.1681658099999979
  0.7579304799999989  0.4644172766999972  0.1681658099999979
  0.0912638133000030  0.7977506100000014  0.1681658099999979
  0.4245971467000018  0.7977506100000014  0.1681658099999979
  0.7579304799999989  0.7977506100000014  0.1681658099999979
  0.2631100732999982  0.1359881599999966  0.1968608900000035
  0.5964434066999971  0.1359881599999966  0.1968608900000035
  0.9297767400000012  0.1359881599999966  0.1968608900000035
  0.2631100732999982  0.4693214933000007  0.1968608900000035
  0.5964434066999971  0.4693214933000007  0.1968608900000035
  0.9297767400000012  0.4693214933000007  0.1968608900000035
  0.2631100732999982  0.8026548266999995  0.1968608900000035
  0.5964434066999971  0.8026548266999995  0.1968608900000035
  0.9297767400000012  0.8026548266999995  0.1968608900000035
  0.1973451733000005  0.0702232599999988  0.8031391100000036
  0.5306785066999993  0.0702232599999988  0.8031391100000036
  0.8640118400000034  0.0702232599999988  0.8031391100000036
  0.1973451733000005  0.4035565933000029  0.8031391100000036
  0.5306785066999993  0.4035565933000029  0.8031391100000036
  0.8640118400000034  0.4035565933000029  0.8031391100000036
  0.1973451733000005  0.7368899267000018  0.8031391100000036
  0.5306785066999993  0.7368899267000018  0.8031391100000036
  0.8640118400000034  0.7368899267000018  0.8031391100000036
  0.0025393466999972  0.2065729632999975  0.6292033499999974
  0.3358726800000014  0.2065729632999975  0.6292033499999974
  0.6692060132999984  0.2065729632999975  0.6292033499999974
  0.0025393466999972  0.5399062967000035  0.6292033499999974
  0.3358726800000014  0.5399062967000035  0.6292033499999974
  0.6692060132999984  0.5399062967000035  0.6292033499999974
  0.0025393466999972  0.8732396300000005  0.6292033499999974
  0.3358726800000014  0.8732396300000005  0.6292033499999974
  0.6692060132999984  0.8732396300000005  0.6292033499999974
  0.1267603699999995  0.3307939867000016  0.3707966500000026
  0.4600937032999965  0.3307939867000016  0.3707966500000026
  0.7934270367000025  0.3307939867000016  0.3707966500000026
  0.1267603699999995  0.6641273199999986  0.3707966500000026
  0.4600937032999965  0.6641273199999986  0.3707966500000026
  0.7934270367000025  0.6641273199999986  0.3707966500000026
  0.1267603699999995  0.9974606533000028  0.3707966500000026
  0.4600937032999965  0.9974606533000028  0.3707966500000026
  0.7934270367000025  0.9974606533000028  0.3707966500000026
  0.0635089867000005  0.2698243466999983  0.0000000000000000
  0.3968423199999975  0.2698243466999983  0.0000000000000000
  0.7301756533000017  0.2698243466999983  0.0000000000000000
  0.0635089867000005  0.6031576800000025  0.0000000000000000
  0.3968423199999975  0.6031576800000025  0.0000000000000000
  0.7301756533000017  0.6031576800000025  0.0000000000000000
  0.0635089867000005  0.9364910132999995  0.0000000000000000
  0.3968423199999975  0.9364910132999995  0.0000000000000000
  0.7301756533000017  0.9364910132999995  0.0000000000000000
  0.2902727399999989  0.1721494000000021  0.3935217000000009
  0.6236060733000031  0.1721494000000021  0.3935217000000009
  0.9569394067000019  0.1721494000000021  0.3935217000000009
  0.2902727399999989  0.5054827332999992  0.3935217000000009
  0.6236060733000031  0.5054827332999992  0.3935217000000009
  0.9569394067000019  0.5054827332999992  0.3935217000000009
  0.2902727399999989  0.8388160666999980  0.3935217000000009
  0.6236060733000031  0.8388160666999980  0.3935217000000009
  0.9569394067000019  0.8388160666999980  0.3935217000000009
  0.1611839333000020  0.0430605932999981  0.6064782999999991
  0.4945172667000008  0.0430605932999981  0.6064782999999991
  0.8278505999999979  0.0430605932999981  0.6064782999999991
  0.1611839333000020  0.3763939266999969  0.6064782999999991
  0.4945172667000008  0.3763939266999969  0.6064782999999991
  0.8278505999999979  0.3763939266999969  0.6064782999999991
  0.1611839333000020  0.7097272600000011  0.6064782999999991
  0.4945172667000008  0.7097272600000011  0.6064782999999991
  0.8278505999999979  0.7097272600000011  0.6064782999999991
  0.0376139067000025  0.0773130667000004  0.8454277700000006
  0.3709472399999996  0.0773130667000004  0.8454277700000006
  0.7042805732999966  0.0773130667000004  0.8454277700000006
  0.0376139067000025  0.4106463999999974  0.8454277700000006
  0.3709472399999996  0.4106463999999974  0.8454277700000006
  0.7042805732999966  0.4106463999999974  0.8454277700000006
  0.0376139067000025  0.7439797333000016  0.8454277700000006
  0.3709472399999996  0.7439797333000016  0.8454277700000006
  0.7042805732999966  0.7439797333000016  0.8454277700000006
  0.2560202666999984  0.2957194267000034  0.1545722299999994
  0.5893536000000026  0.2957194267000034  0.1545722299999994
  0.9226869332999996  0.2957194267000034  0.1545722299999994
  0.2560202666999984  0.6290527600000004  0.1545722299999994
  0.5893536000000026  0.6290527600000004  0.1545722299999994
  0.9226869332999996  0.6290527600000004  0.1545722299999994
  0.2560202666999984  0.9623860932999975  0.1545722299999994
  0.5893536000000026  0.9623860932999975  0.1545722299999994
  0.9226869332999996  0.9623860932999975  0.1545722299999994
 
  0.00000000E+00  0.00000000E+00  0.00000000E+00
  0.00000000E+00  0.00000000E+00  0.00000000E+00
  0.00000000E+00  0.00000000E+00  0.00000000E+00
  0.00000000E+00  0.00000000E+00  0.00000000E+00
  0.00000000E+00  0.00000000E+00  0.00000000E+00
  0.00000000E+00  0.00000000E+00  0.00000000E+00
  0.00000000E+00  0.00000000E+00  0.00000000E+00
  0.00000000E+00  0.00000000E+00  0.00000000E+00
  0.00000000E+00  0.00000000E+00  0.00000000E+00
  0.00000000E+00  0.00000000E+00  0.00000000E+00
  0.00000000E+00  0.00000000E+00  0.00000000E+00
  0.00000000E+00  0.00000000E+00  0.00000000E+00
  0.00000000E+00  0.00000000E+00  0.00000000E+00
  0.00000000E+00  0.00000000E+00  0.00000000E+00
  0.00000000E+00  0.00000000E+00  0.00000000E+00
  0.00000000E+00  0.00000000E+00  0.00000000E+00
  0.00000000E+00  0.00000000E+00  0.00000000E+00
  0.00000000E+00  0.00000000E+00  0.00000000E+00
  0.00000000E+00  0.00000000E+00  0.00000000E+00
  0.00000000E+00  0.00000000E+00  0.00000000E+00
  0.00000000E+00  0.00000000E+00  0.00000000E+00
  0.00000000E+00  0.00000000E+00  0.00000000E+00
  0.00000000E+00  0.00000000E+00  0.00000000E+00
  0.00000000E+00  0.00000000E+00  0.00000000E+00
  0.00000000E+00  0.00000000E+00  0.00000000E+00
  0.00000000E+00  0.00000000E+00  0.00000000E+00
  0.00000000E+00  0.00000000E+00  0.00000000E+00
  0.00000000E+00  0.00000000E+00  0.00000000E+00
  0.00000000E+00  0.00000000E+00  0.00000000E+00
  0.00000000E+00  0.00000000E+00  0.00000000E+00
  0.00000000E+00  0.00000000E+00  0.00000000E+00
  0.00000000E+00  0.00000000E+00  0.00000000E+00
  0.00000000E+00  0.00000000E+00  0.00000000E+00
  0.00000000E+00  0.00000000E+00  0.00000000E+00
  0.00000000E+00  0.00000000E+00  0.00000000E+00
  0.00000000E+00  0.00000000E+00  0.00000000E+00
  0.00000000E+00  0.00000000E+00  0.00000000E+00
  0.00000000E+00  0.00000000E+00  0.00000000E+00
  0.00000000E+00  0.00000000E+00  0.00000000E+00
  0.00000000E+00  0.00000000E+00  0.00000000E+00
  0.00000000E+00  0.00000000E+00  0.00000000E+00
  0.00000000E+00  0.00000000E+00  0.00000000E+00
  0.00000000E+00  0.00000000E+00  0.00000000E+00
  0.00000000E+00  0.00000000E+00  0.00000000E+00
  0.00000000E+00  0.00000000E+00  0.00000000E+00
  0.00000000E+00  0.00000000E+00  0.00000000E+00
  0.00000000E+00  0.00000000E+00  0.00000000E+00
  0.00000000E+00  0.00000000E+00  0.00000000E+00
  0.00000000E+00  0.00000000E+00  0.00000000E+00
  0.00000000E+00  0.00000000E+00  0.00000000E+00
  0.00000000E+00  0.00000000E+00  0.00000000E+00
  0.00000000E+00  0.00000000E+00  0.00000000E+00
  0.00000000E+00  0.00000000E+00  0.00000000E+00
  0.00000000E+00  0.00000000E+00  0.00000000E+00
  0.00000000E+00  0.00000000E+00  0.00000000E+00
  0.00000000E+00  0.00000000E+00  0.00000000E+00
  0.00000000E+00  0.00000000E+00  0.00000000E+00
  0.00000000E+00  0.00000000E+00  0.00000000E+00
  0.00000000E+00  0.00000000E+00  0.00000000E+00
  0.00000000E+00  0.00000000E+00  0.00000000E+00
  0.00000000E+00  0.00000000E+00  0.00000000E+00
  0.00000000E+00  0.00000000E+00  0.00000000E+00
  0.00000000E+00  0.00000000E+00  0.00000000E+00
  0.00000000E+00  0.00000000E+00  0.00000000E+00
  0.00000000E+00  0.00000000E+00  0.00000000E+00
  0.00000000E+00  0.00000000E+00  0.00000000E+00
  0.00000000E+00  0.00000000E+00  0.00000000E+00
  0.00000000E+00  0.00000000E+00  0.00000000E+00
  0.00000000E+00  0.00000000E+00  0.00000000E+00
  0.00000000E+00  0.00000000E+00  0.00000000E+00
  0.00000000E+00  0.00000000E+00  0.00000000E+00
  0.00000000E+00  0.00000000E+00  0.00000000E+00
  0.00000000E+00  0.00000000E+00  0.00000000E+00
  0.00000000E+00  0.00000000E+00  0.00000000E+00
  0.00000000E+00  0.00000000E+00  0.00000000E+00
  0.00000000E+00  0.00000000E+00  0.00000000E+00
  0.00000000E+00  0.00000000E+00  0.00000000E+00
  0.00000000E+00  0.00000000E+00  0.00000000E+00
  0.00000000E+00  0.00000000E+00  0.00000000E+00
  0.00000000E+00  0.00000000E+00  0.00000000E+00
  0.00000000E+00  0.00000000E+00  0.00000000E+00
  0.00000000E+00  0.00000000E+00  0.00000000E+00
  0.00000000E+00  0.00000000E+00  0.00000000E+00
  0.00000000E+00  0.00000000E+00  0.00000000E+00
  0.00000000E+00  0.00000000E+00  0.00000000E+00
  0.00000000E+00  0.00000000E+00  0.00000000E+00
  0.00000000E+00  0.00000000E+00  0.00000000E+00
  0.00000000E+00  0.00000000E+00  0.00000000E+00
  0.00000000E+00  0.00000000E+00  0.00000000E+00
  0.00000000E+00  0.00000000E+00  0.00000000E+00
  0.00000000E+00  0.00000000E+00  0.00000000E+00
  0.00000000E+00  0.00000000E+00  0.00000000E+00
  0.00000000E+00  0.00000000E+00  0.00000000E+00
  0.00000000E+00  0.00000000E+00  0.00000000E+00
  0.00000000E+00  0.00000000E+00  0.00000000E+00
  0.00000000E+00  0.00000000E+00  0.00000000E+00
  0.00000000E+00  0.00000000E+00  0.00000000E+00
  0.00000000E+00  0.00000000E+00  0.00000000E+00
  0.00000000E+00  0.00000000E+00  0.00000000E+00
