# Compound: Li64Fe32S32O32. Old comment: FeLi2OS supercell_09
  1.0000000000
 15.4248220200   0.0000000000   0.0000000000
  0.0000000000  11.2102424200   0.0000000000
  0.0000000000   0.0000000000  11.2770269800
Li    Fe    S     O
   64    32    32    32
Direct
  0.1250000000   0.2500000000   0.4675100950
  0.6250000000   0.2500000000   0.4675100950
  0.1250000000   0.7500000000   0.4675100950
  0.6250000000   0.7500000000   0.4675100950
  0.1250000000   0.2500000000   0.9675100950
  0.6250000000   0.2500000000   0.9675100950
  0.1250000000   0.7500000000   0.9675100950
  0.6250000000   0.7500000000   0.9675100950
  0.1250000000   0.0000000000   0.2824899050
  0.6250000000   0.0000000000   0.2824899050
  0.1250000000   0.5000000000   0.2824899050
  0.6250000000   0.5000000000   0.2824899050
  0.1250000000   0.0000000000   0.7824899050
  0.6250000000   0.0000000000   0.7824899050
  0.1250000000   0.5000000000   0.7824899050
  0.6250000000   0.5000000000   0.7824899050
  0.3750000000   0.2500000000   0.0324899050
  0.8750000000   0.2500000000   0.0324899050
  0.3750000000   0.7500000000   0.0324899050
  0.8750000000   0.7500000000   0.0324899050
  0.3750000000   0.2500000000   0.5324899050
  0.8750000000   0.2500000000   0.5324899050
  0.3750000000   0.7500000000   0.5324899050
  0.8750000000   0.7500000000   0.5324899050
  0.3750000000   0.0000000000   0.2175100950
  0.8750000000   0.0000000000   0.2175100950
  0.3750000000   0.5000000000   0.2175100950
  0.8750000000   0.5000000000   0.2175100950
  0.3750000000   0.0000000000   0.7175100950
  0.8750000000   0.0000000000   0.7175100950
  0.3750000000   0.5000000000   0.7175100950
  0.8750000000   0.5000000000   0.7175100950
  0.2692406800   0.3750000000   0.3750000000
  0.7692406800   0.3750000000   0.3750000000
  0.2692406800   0.8750000000   0.3750000000
  0.7692406800   0.8750000000   0.3750000000
  0.2692406800   0.3750000000   0.8750000000
  0.7692406800   0.3750000000   0.8750000000
  0.2692406800   0.8750000000   0.8750000000
  0.7692406800   0.8750000000   0.8750000000
  0.2307593200   0.1250000000   0.1250000000
  0.7307593200   0.1250000000   0.1250000000
  0.2307593200   0.6250000000   0.1250000000
  0.7307593200   0.6250000000   0.1250000000
  0.2307593200   0.1250000000   0.6250000000
  0.7307593200   0.1250000000   0.6250000000
  0.2307593200   0.6250000000   0.6250000000
  0.7307593200   0.6250000000   0.6250000000
  0.0192406800   0.3750000000   0.1250000000
  0.5192406800   0.3750000000   0.1250000000
  0.0192406800   0.8750000000   0.1250000000
  0.5192406800   0.8750000000   0.1250000000
  0.0192406800   0.3750000000   0.6250000000
  0.5192406800   0.3750000000   0.6250000000
  0.0192406800   0.8750000000   0.6250000000
  0.5192406800   0.8750000000   0.6250000000
  0.4807593200   0.1250000000   0.3750000000
  0.9807593200   0.1250000000   0.3750000000
  0.4807593200   0.6250000000   0.3750000000
  0.9807593200   0.6250000000   0.3750000000
  0.4807593200   0.1250000000   0.8750000000
  0.9807593200   0.1250000000   0.8750000000
  0.4807593200   0.6250000000   0.8750000000
  0.9807593200   0.6250000000   0.8750000000
  0.4860664750   0.3750000000   0.3758867585
  0.9860664750   0.3750000000   0.3750000000
  0.4860664750   0.8750000000   0.3750000000
  0.9860664750   0.8750000000   0.3750000000
  0.4860664750   0.3750000000   0.8750000000
  0.9860664750   0.3750000000   0.8750000000
  0.4860664750   0.8750000000   0.8750000000
  0.9860664750   0.8750000000   0.8750000000
  0.0139335250   0.1250000000   0.1250000000
  0.5139335250   0.1250000000   0.1250000000
  0.0139335250   0.6250000000   0.1250000000
  0.5139335250   0.6250000000   0.1250000000
  0.0139335250   0.1250000000   0.6250000000
  0.5139335250   0.1250000000   0.6250000000
  0.0139335250   0.6250000000   0.6250000000
  0.5139335250   0.6250000000   0.6250000000
  0.2360664750   0.3750000000   0.1250000000
  0.7360664750   0.3750000000   0.1250000000
  0.2360664750   0.8750000000   0.1250000000
  0.7360664750   0.8750000000   0.1250000000
  0.2360664750   0.3750000000   0.6250000000
  0.7360664750   0.3750000000   0.6250000000
  0.2360664750   0.8750000000   0.6250000000
  0.7360664750   0.8750000000   0.6250000000
  0.2639335250   0.1250000000   0.3750000000
  0.7639335250   0.1250000000   0.3750000000
  0.2639335250   0.6250000000   0.3750000000
  0.7639335250   0.6250000000   0.3750000000
  0.2639335250   0.1250000000   0.8750000000
  0.7639335250   0.1250000000   0.8750000000
  0.2639335250   0.6250000000   0.8750000000
  0.7639335250   0.6250000000   0.8750000000
  0.1250000000   0.0000000000   0.5010605300
  0.6250000000   0.0000000000   0.5010605300
  0.1250000000   0.5000000000   0.5010605300
  0.6250000000   0.5000000000   0.5010605300
  0.1250000000   0.0000000000   0.0010605300
  0.6250000000   0.0000000000   0.0010605300
  0.1250000000   0.5000000000   0.0010605300
  0.6250000000   0.5000000000   0.0010605300
  0.1250000000   0.2500000000   0.2489394700
  0.6250000000   0.2500000000   0.2489394700
  0.1250000000   0.7500000000   0.2489394700
  0.6250000000   0.7500000000   0.2489394700
  0.1250000000   0.2500000000   0.7489394700
  0.6250000000   0.2500000000   0.7489394700
  0.1250000000   0.7500000000   0.7489394700
  0.6250000000   0.7500000000   0.7489394700
  0.3750000000   0.0000000000   0.9989394700
  0.8750000000   0.0000000000   0.9989394700
  0.3750000000   0.5000000000   0.9989394700
  0.8750000000   0.5000000000   0.9989394700
  0.3750000000   0.0000000000   0.4989394700
  0.8750000000   0.0000000000   0.4989394700
  0.3750000000   0.5000000000   0.4989394700
  0.8750000000   0.5000000000   0.4989394700
  0.3750000000   0.2500000000   0.2510605300
  0.8750000000   0.2500000000   0.2510605300
  0.3750000000   0.7500000000   0.2510605300
  0.8750000000   0.7500000000   0.2510605300
  0.3750000000   0.2500000000   0.7510605300
  0.8750000000   0.2500000000   0.7510605300
  0.3750000000   0.7500000000   0.7510605300
  0.8750000000   0.7500000000   0.7510605300
  0.0000000000   0.2500000000   0.0000000000
  0.5000000000   0.2500000000   0.0000000000
  0.0000000000   0.7500000000   0.0000000000
  0.5000000000   0.7500000000   0.0000000000
  0.0000000000   0.2500000000   0.5000000000
  0.5000000000   0.2500000000   0.5000000000
  0.0000000000   0.7500000000   0.5000000000
  0.5000000000   0.7500000000   0.5000000000
  0.0000000000   0.0000000000   0.2500000000
  0.5000000000   0.0000000000   0.2500000000
  0.0000000000   0.5000000000   0.2500000000
  0.5000000000   0.5000000000   0.2500000000
  0.0000000000   0.0000000000   0.7500000000
  0.5000000000   0.0000000000   0.7500000000
  0.0000000000   0.5000000000   0.7500000000
  0.5000000000   0.5000000000   0.7500000000
  0.2500000000   0.2500000000   0.0000000000
  0.7500000000   0.2500000000   0.0000000000
  0.2500000000   0.7500000000   0.0000000000
  0.7500000000   0.7500000000   0.0000000000
  0.2500000000   0.2500000000   0.5000000000
  0.7500000000   0.2500000000   0.5000000000
  0.2500000000   0.7500000000   0.5000000000
  0.7500000000   0.7500000000   0.5000000000
  0.2500000000   0.0000000000   0.2500000000
  0.7500000000   0.0000000000   0.2500000000
  0.2500000000   0.5000000000   0.2500000000
  0.7500000000   0.5000000000   0.2500000000
  0.2500000000   0.0000000000   0.7500000000
  0.7500000000   0.0000000000   0.7500000000
  0.2500000000   0.5000000000   0.7500000000
  0.7500000000   0.5000000000   0.7500000000
