# Compound: Fe24Li31O16S24. Old comment:
   1.0000000000000000     
     7.8866538400000001   -7.9475566999999998    0.0601846200000000
     7.3433505600000002    7.9467915400000004   -2.8792872599999999
    -0.0478291200000000   -0.1071026000000000   10.5527142699999992
   Fe   Li   O    S 
    24    31    16    24
Direct
  0.2618901700000009  0.6645173799999995  0.6021885400000002
  0.2354074100000005  0.3352220700000004  0.3988609000000025
  0.1230163899999965  0.3258716100000001  0.8029712599999996
  0.3749641799999992  0.5792406799999981  0.8141152899999966
  0.8742674300000033  0.1751995099999988  0.1991361400000002
  0.1243676899999997  0.4215384900000032  0.1854554000000022
  0.0159956899999969  0.9163672099999971  0.6017556899999974
  0.9797305900000026  0.5848656100000014  0.3986157599999984
  0.8693539200000018  0.5741056800000024  0.7889971700000018
  0.1250124800000023  0.8294606999999985  0.8167386399999970
  0.6270148699999964  0.4262500600000010  0.1966481400000006
  0.8727631300000027  0.6688735399999999  0.1833429899999999
  0.7645887400000007  0.1628222000000008  0.6025258700000009
  0.7348815100000010  0.8290608499999976  0.3993022000000011
  0.6272947699999989  0.8174533500000010  0.7890715300000011
  0.8754718100000005  0.0792615299999966  0.8166501600000018
  0.3774316299999967  0.6759873199999973  0.1995051199999978
  0.6244510200000022  0.9203570000000028  0.1871803599999993
  0.5211331799999996  0.4218095599999998  0.6012351899999970
  0.4856132099999968  0.0854257399999980  0.3994036300000019
  0.3752060500000027  0.0738620600000033  0.8030708699999991
  0.6257864700000013  0.3286374600000030  0.8131652900000006
  0.1249729399999993  0.9242078300000003  0.1971731000000005
  0.3742616999999981  0.1699852200000009  0.1843344500000015
  0.4770742799999965  0.4778079499999990  0.0027135899999990
  0.0217505199999977  0.5255653899999970  0.9945524800000030
  0.9776894000000027  0.3774603700000014  0.6060921300000004
  0.0222638899999978  0.1204033899999999  0.3931028200000029
  0.8738971200000023  0.3389438800000022  0.8433183300000024
  0.1217616300000017  0.5668875200000016  0.7743082400000034
  0.1233745600000020  0.1630063899999996  0.1548873699999973
  0.3775565500000013  0.4336088700000005  0.2275567499999980
  0.2267065200000005  0.7252451600000001  0.0052433700000023
  0.7787914499999999  0.7794810500000011  0.9980397400000030
  0.7703283399999989  0.3783215300000009  0.3965890200000004
  0.6280041699999970  0.5887198900000001  0.8403812500000001
  0.8701817700000021  0.8093581400000005  0.7580440500000023
  0.8737350600000013  0.4129833399999967  0.1551315900000034
  0.1262710399999989  0.6833218800000012  0.2268830900000012
  0.9725970799999999  0.9745993000000013  0.0041053400000024
  0.5277776399999965  0.0196748400000004  0.9953694000000013
  0.4756745099999975  0.8791964999999990  0.6066960899999998
  0.5292573999999988  0.6195415099999977  0.3969880300000028
  0.3782474799999989  0.8344136999999989  0.8436294199999992
  0.6233895800000013  0.0655835399999987  0.7745023499999988
  0.6249112200000013  0.6617660000000001  0.1540210900000005
  0.8764814800000025  0.9339214600000005  0.2292182699999969
  0.7248741800000005  0.2276857199999966  0.0044650800000028
  0.2747207600000010  0.2743219700000026  0.9958067600000007
  0.2280860400000009  0.1301134500000032  0.6076215300000030
  0.2717791700000021  0.8702439400000017  0.3934670000000011
  0.1262310999999983  0.0871893200000002  0.8437158600000032
  0.3734622400000021  0.3164955499999991  0.7706824400000016
  0.3735920399999983  0.9126243400000007  0.1552466500000023
  0.6268818699999983  0.1836771899999974  0.2265415800000028
  0.9970543100000029  0.4524913099999992  0.8044325099999980
  0.2481961100000021  0.7021595800000000  0.8112428399999985
  0.0005345800000001  0.0499093600000009  0.1954181199999994
  0.2502359799999994  0.2982158599999991  0.1919355300000021
  0.7519468899999993  0.7063044300000030  0.8159543200000030
  0.9985608900000003  0.9505796099999984  0.8085061600000003
  0.7504044900000011  0.3006229699999992  0.1959049600000000
  0.0000598900000028  0.5479082100000028  0.1907873500000008
  0.5014424599999998  0.9483217300000035  0.8051538300000018
  0.7494682800000021  0.2010969399999993  0.8108794999999986
  0.5010912400000009  0.5487249399999996  0.1951282200000009
  0.7502875699999976  0.7982581300000007  0.1915140899999983
  0.2499864299999999  0.2012153699999999  0.8055288999999988
  0.5000872900000033  0.4519504499999982  0.8065543299999973
  0.2510913400000021  0.7994213300000013  0.1963424899999993
  0.4999553500000005  0.0476023000000012  0.1922459999999973
  0.0010296600000004  0.2508871799999994  0.9988971499999977
  0.2492469000000028  0.4990100899999987  0.9990362599999969
  0.0045052299999995  0.3469111699999985  0.3662278500000014
  0.2454652799999977  0.5863789200000014  0.3661523399999993
  0.9956107599999982  0.1528018099999997  0.6334003500000023
  0.2522654400000022  0.4134029399999974  0.6334485599999979
  0.7475852199999977  0.4972731000000010  0.0000642600000020
  0.0036012999999997  0.7536914200000027  0.0066375299999990
  0.7562326400000003  0.5969961899999987  0.3627014799999984
  0.9948589700000028  0.8365096699999981  0.3678441400000025
  0.7452010599999994  0.3974222800000007  0.6337946499999987
  0.0102494899999996  0.6630337799999992  0.6315045699999970
  0.4967434400000030  0.7479210999999992  0.0033996900000020
  0.7516008999999997  0.0054979700000004  0.0064676100000014
  0.5056486000000007  0.8463246900000030  0.3681933499999985
  0.7443357100000014  0.0870680399999983  0.3673495800000026
  0.4886903299999972  0.6541190900000018  0.6348513000000011
  0.7553762900000009  0.9180883699999995  0.6320960899999974
  0.2509328399999973  0.0007129199999980  0.9995812399999977
  0.4995900600000027  0.2489989199999982  0.0002891999999974
  0.2551395600000035  0.0968974999999972  0.3671207800000005
  0.4951194200000018  0.3369405099999980  0.3679815699999978
  0.2444686600000026  0.9038428900000000  0.6338154500000002
  0.5045272300000008  0.1608026899999970  0.6340767399999976

  0.00000000E+00  0.00000000E+00  0.00000000E+00
  0.00000000E+00  0.00000000E+00  0.00000000E+00
  0.00000000E+00  0.00000000E+00  0.00000000E+00
  0.00000000E+00  0.00000000E+00  0.00000000E+00
  0.00000000E+00  0.00000000E+00  0.00000000E+00
  0.00000000E+00  0.00000000E+00  0.00000000E+00
  0.00000000E+00  0.00000000E+00  0.00000000E+00
  0.00000000E+00  0.00000000E+00  0.00000000E+00
  0.00000000E+00  0.00000000E+00  0.00000000E+00
  0.00000000E+00  0.00000000E+00  0.00000000E+00
  0.00000000E+00  0.00000000E+00  0.00000000E+00
  0.00000000E+00  0.00000000E+00  0.00000000E+00
  0.00000000E+00  0.00000000E+00  0.00000000E+00
  0.00000000E+00  0.00000000E+00  0.00000000E+00
  0.00000000E+00  0.00000000E+00  0.00000000E+00
  0.00000000E+00  0.00000000E+00  0.00000000E+00
  0.00000000E+00  0.00000000E+00  0.00000000E+00
  0.00000000E+00  0.00000000E+00  0.00000000E+00
  0.00000000E+00  0.00000000E+00  0.00000000E+00
  0.00000000E+00  0.00000000E+00  0.00000000E+00
  0.00000000E+00  0.00000000E+00  0.00000000E+00
  0.00000000E+00  0.00000000E+00  0.00000000E+00
  0.00000000E+00  0.00000000E+00  0.00000000E+00
  0.00000000E+00  0.00000000E+00  0.00000000E+00
  0.00000000E+00  0.00000000E+00  0.00000000E+00
  0.00000000E+00  0.00000000E+00  0.00000000E+00
  0.00000000E+00  0.00000000E+00  0.00000000E+00
  0.00000000E+00  0.00000000E+00  0.00000000E+00
  0.00000000E+00  0.00000000E+00  0.00000000E+00
  0.00000000E+00  0.00000000E+00  0.00000000E+00
  0.00000000E+00  0.00000000E+00  0.00000000E+00
  0.00000000E+00  0.00000000E+00  0.00000000E+00
  0.00000000E+00  0.00000000E+00  0.00000000E+00
  0.00000000E+00  0.00000000E+00  0.00000000E+00
  0.00000000E+00  0.00000000E+00  0.00000000E+00
  0.00000000E+00  0.00000000E+00  0.00000000E+00
  0.00000000E+00  0.00000000E+00  0.00000000E+00
  0.00000000E+00  0.00000000E+00  0.00000000E+00
  0.00000000E+00  0.00000000E+00  0.00000000E+00
  0.00000000E+00  0.00000000E+00  0.00000000E+00
  0.00000000E+00  0.00000000E+00  0.00000000E+00
  0.00000000E+00  0.00000000E+00  0.00000000E+00
  0.00000000E+00  0.00000000E+00  0.00000000E+00
  0.00000000E+00  0.00000000E+00  0.00000000E+00
  0.00000000E+00  0.00000000E+00  0.00000000E+00
  0.00000000E+00  0.00000000E+00  0.00000000E+00
  0.00000000E+00  0.00000000E+00  0.00000000E+00
  0.00000000E+00  0.00000000E+00  0.00000000E+00
  0.00000000E+00  0.00000000E+00  0.00000000E+00
  0.00000000E+00  0.00000000E+00  0.00000000E+00
  0.00000000E+00  0.00000000E+00  0.00000000E+00
  0.00000000E+00  0.00000000E+00  0.00000000E+00
  0.00000000E+00  0.00000000E+00  0.00000000E+00
  0.00000000E+00  0.00000000E+00  0.00000000E+00
  0.00000000E+00  0.00000000E+00  0.00000000E+00
  0.00000000E+00  0.00000000E+00  0.00000000E+00
  0.00000000E+00  0.00000000E+00  0.00000000E+00
  0.00000000E+00  0.00000000E+00  0.00000000E+00
  0.00000000E+00  0.00000000E+00  0.00000000E+00
  0.00000000E+00  0.00000000E+00  0.00000000E+00
  0.00000000E+00  0.00000000E+00  0.00000000E+00
  0.00000000E+00  0.00000000E+00  0.00000000E+00
  0.00000000E+00  0.00000000E+00  0.00000000E+00
  0.00000000E+00  0.00000000E+00  0.00000000E+00
  0.00000000E+00  0.00000000E+00  0.00000000E+00
  0.00000000E+00  0.00000000E+00  0.00000000E+00
  0.00000000E+00  0.00000000E+00  0.00000000E+00
  0.00000000E+00  0.00000000E+00  0.00000000E+00
  0.00000000E+00  0.00000000E+00  0.00000000E+00
  0.00000000E+00  0.00000000E+00  0.00000000E+00
  0.00000000E+00  0.00000000E+00  0.00000000E+00
  0.00000000E+00  0.00000000E+00  0.00000000E+00
  0.00000000E+00  0.00000000E+00  0.00000000E+00
  0.00000000E+00  0.00000000E+00  0.00000000E+00
  0.00000000E+00  0.00000000E+00  0.00000000E+00
  0.00000000E+00  0.00000000E+00  0.00000000E+00
  0.00000000E+00  0.00000000E+00  0.00000000E+00
  0.00000000E+00  0.00000000E+00  0.00000000E+00
  0.00000000E+00  0.00000000E+00  0.00000000E+00
  0.00000000E+00  0.00000000E+00  0.00000000E+00
  0.00000000E+00  0.00000000E+00  0.00000000E+00
  0.00000000E+00  0.00000000E+00  0.00000000E+00
  0.00000000E+00  0.00000000E+00  0.00000000E+00
  0.00000000E+00  0.00000000E+00  0.00000000E+00
  0.00000000E+00  0.00000000E+00  0.00000000E+00
  0.00000000E+00  0.00000000E+00  0.00000000E+00
  0.00000000E+00  0.00000000E+00  0.00000000E+00
  0.00000000E+00  0.00000000E+00  0.00000000E+00
  0.00000000E+00  0.00000000E+00  0.00000000E+00
  0.00000000E+00  0.00000000E+00  0.00000000E+00
  0.00000000E+00  0.00000000E+00  0.00000000E+00
  0.00000000E+00  0.00000000E+00  0.00000000E+00
  0.00000000E+00  0.00000000E+00  0.00000000E+00
  0.00000000E+00  0.00000000E+00  0.00000000E+00
  0.00000000E+00  0.00000000E+00  0.00000000E+00
