# Compound: Fe32Li31O16S32. Old comment:
   1.0000000000000000     
     7.6911861600000000   -7.6885056399999998    0.0000000100000000
     7.6884112800000004    7.6911136200000003   -0.0126780500000000
    -3.8335882400000001   -3.8349345399999999   12.8627506399999998
   Fe   Li   O    S 
    32    31    16    32
Direct
  0.9738466422719728  0.0794866664290566  0.1586147628039238
  0.2246827710429677  0.3294530481064626  0.1593970057006093
  0.7243862324810609  0.3286887527450797  0.1581614506753563
  0.9730872323279165  0.5796797167500093  0.1591052555496032
  0.9747388857260448  0.4216882280920060  0.3414683386863528
  0.2231948497282896  0.6704517835219280  0.3412519984137763
  0.7144280876693663  0.6662708436580771  0.3468666416708889
  0.9733887085147545  0.9204678891006476  0.3411730902378052
  0.9733749382445388  0.0793067988916766  0.6589023405588423
  0.2245022584868367  0.3300293726765172  0.6588701542233287
  0.7227516216487833  0.3285514494782406  0.6586993199655305
  0.9747782079540867  0.5802766710478348  0.6585917667722080
  0.9738273348237129  0.4207715135033700  0.8412788946177927
  0.2246745063015382  0.6700531229970129  0.8405176969417548
  0.7243969865315204  0.6705216234989493  0.8417571167861312
  0.9730794035196104  0.9205423779964454  0.8408252137050677
  0.4730738847442202  0.5806037716402502  0.1586117790033484
  0.7238794734490615  0.8293850627011216  0.1593999738263302
  0.2241970839864070  0.8295567474208906  0.1584620216012180
  0.4739621264968999  0.0801827277270626  0.1590378046807537
  0.4744436627818136  0.9218469624837052  0.3411162356379580
  0.7227400397808844  0.1698780513455278  0.3413417660253390
  0.2245265570276894  0.1711423334127032  0.3411575165585816
  0.4814293853536406  0.4328775555874966  0.3468406281545514
  0.4814608005232321  0.5860948670300283  0.6531960321367739
  0.7144023871274087  0.8194325783936676  0.6532424018115249
  0.2231720439941731  0.8292022985150299  0.6588157857139701
  0.4744456279542249  0.0807359846841714  0.6589334521787618
  0.4730846809401887  0.9219748920880445  0.8413429644825133
  0.7238819666436532  0.1698702439115515  0.8405338578391270
  0.2241767363835968  0.1709731511023925  0.8414833049907835
  0.4739443262077125  0.4210990157021059  0.8409134043033258
  0.0812363038873440  0.1428822504775038  0.0000223618791543
  0.8672676773938229  0.8567203277809384  0.0002907957011042
  0.8672682791690729  0.3563921167436881  0.9996720011367536
  0.0812321943148891  0.6428560043637327  0.9999527424742580
  0.1172278489525802  0.3936166913115915  0.5000171829625605
  0.3395155884836704  0.6109765002462278  0.5000044218615229
  0.8231840845568877  0.6034847313889472  0.5000063095806278
  0.6205325982993098  0.4006727592991384  0.5000286839355962
  0.0807358684751187  0.1434171234933489  0.5000098260457757
  0.8700795028250773  0.8563704022171988  0.5000207147348484
  0.8678426143811041  0.3559817732145451  0.5000010490575890
  0.0817631801720105  0.6426480060930005  0.5000267692310635
  0.1169397701160280  0.3930369720052151  0.0003557119802217
  0.3306057369534052  0.6066839591473724  0.0000178404399813
  0.8308712101564605  0.6071044876863368  0.0004962692271793
  0.6175490947451882  0.3938064697399582  0.0004536321162065
  0.5805629813959148  0.6434082377540088  0.9994851062390474
  0.3675346781021722  0.3571500921322466  0.0005499176787138
  0.3675361452927954  0.8565990936314249  0.9994331102727986
  0.5805749981413317  0.1439231897023572  0.0005095145899824
  0.6130884805153060  0.8849992260474466  0.5000121610466548
  0.8302470256734397  0.1070040289090456  0.5000064930636413
  0.3307759372571150  0.1059600990887306  0.4999958878714064
  0.1181011202617224  0.8935104303263692  0.5000025388678735
  0.3679391322265846  0.3538633680565329  0.5000044769407634
  0.3687146143170438  0.8555922257050582  0.4999958824382388
  0.5813152553076382  0.1424254565936492  0.5000090760440251
  0.6175515279560173  0.8933476866662028  0.9995378707952068
  0.8308710850380564  0.1065859918125121  0.9994756358678596
  0.3305912233720250  0.1066693877709178  0.9999684605112159
  0.1169284953550832  0.8926862939608055  0.9996192275069840
  0.2237712348034690  0.2497158282626535  0.5000096205328480
  0.4743730936801725  0.5002832552698918 -0.0000517450335815
  0.9736053988453190  0.5001632261411139  0.0004042497769102
  0.2258096569722731  0.7500882735038187  0.5000607472485109
  0.2245368868845317  0.2503248153745393  0.0005274019710721
  0.4707767828426304  0.4929325212512596  0.5000429164494703
  0.9722214938051777  0.5005340103054259  0.5000309202145475
  0.2245378996345324  0.7498194584991693  0.9994364068613509
  0.7308287135082218  0.7534176526731967  0.5000089964542767
  0.9736071258203046  0.9997428488653702  0.9995615895061863
  0.4743588412910549  0.0003470403020769  0.0000429383750886
  0.7232689060653308  0.2518100778873331  0.5000243711953289
  0.7237761494692080  0.7499624721930674  0.0002497640637268
  0.9743203520377900  0.0006273106947784  0.5000392376292441
  0.4740351048659986  0.9985360495229907  0.5000199161156695
  0.7237812104887721  0.2496901291661214  0.9997509240353811
  0.9739991462489018  0.3256613258608705  0.1517680163182576
  0.2242991072376145  0.5760383422597523  0.1515013129354752
  0.7240980351457432  0.5773495449535493  0.1553215062181776
  0.9741186613332383  0.8261286393028323  0.1514232293168375
  0.9739991777708844  0.1740938012009265  0.3479799860281823
  0.2219473657852835  0.4243612787473581  0.3480488112345758
  0.7259577871041952  0.4211157387419149  0.3465437522066762
  0.9780662216398813  0.6746016621360834  0.3475191835264316
  0.9740063389600140  0.3261378599765137  0.6520759673010595
  0.2219120566202160  0.5763921995681948  0.6520313538118480
  0.7260210631416141  0.5746587005006334  0.6535138075448591
  0.9781105086330890  0.8271400843491611  0.6526102352428440
  0.9741446060925321  0.1745695115646300  0.8484862663094099
  0.2238640275137814  0.4242936633117400  0.8484962503986259
  0.7240708364323946  0.4242913304966834  0.8487139898592306
  0.9740254650728365  0.6739315792868692  0.8481288957843439
  0.4739716959381213  0.8256021767192020  0.1509367033467063
  0.7240463443562493  0.0755535898207894  0.1512154240460116
  0.2238932592201203  0.0757757007004419  0.1514225953410937
  0.4742599151563126  0.3274577101032251  0.1552974670641111
  0.4734035500596403  0.6740153935932228  0.3466776316448868
  0.7235438820403565  0.9262336028715734  0.3478890270367418
  0.2239546400135350  0.9242489683409105  0.3477046736446968
  0.4732568352916901  0.1696425239061451  0.3472038855472048
  0.4733866897934278  0.8273908041591560  0.6534060996391612
  0.7235749510769501  0.0783496478157775  0.6521746037747085
  0.2239156937606428  0.0765182731739953  0.6523658056762617
  0.4732385916080271  0.3224304421134214  0.6528024097625807
  0.4742435164211034  0.6722162968703868  0.8446522914809478
  0.7241390392021695  0.9219943209252507  0.8446008273545201
  0.2242627085025685  0.9245156808732923  0.8484157543537112
  0.4739403780500726  0.1745656502375278  0.8490198325011166

  0.00000000E+00  0.00000000E+00  0.00000000E+00
  0.00000000E+00  0.00000000E+00  0.00000000E+00
  0.00000000E+00  0.00000000E+00  0.00000000E+00
  0.00000000E+00  0.00000000E+00  0.00000000E+00
  0.00000000E+00  0.00000000E+00  0.00000000E+00
  0.00000000E+00  0.00000000E+00  0.00000000E+00
  0.00000000E+00  0.00000000E+00  0.00000000E+00
  0.00000000E+00  0.00000000E+00  0.00000000E+00
  0.00000000E+00  0.00000000E+00  0.00000000E+00
  0.00000000E+00  0.00000000E+00  0.00000000E+00
  0.00000000E+00  0.00000000E+00  0.00000000E+00
  0.00000000E+00  0.00000000E+00  0.00000000E+00
  0.00000000E+00  0.00000000E+00  0.00000000E+00
  0.00000000E+00  0.00000000E+00  0.00000000E+00
  0.00000000E+00  0.00000000E+00  0.00000000E+00
  0.00000000E+00  0.00000000E+00  0.00000000E+00
  0.00000000E+00  0.00000000E+00  0.00000000E+00
  0.00000000E+00  0.00000000E+00  0.00000000E+00
  0.00000000E+00  0.00000000E+00  0.00000000E+00
  0.00000000E+00  0.00000000E+00  0.00000000E+00
  0.00000000E+00  0.00000000E+00  0.00000000E+00
  0.00000000E+00  0.00000000E+00  0.00000000E+00
  0.00000000E+00  0.00000000E+00  0.00000000E+00
  0.00000000E+00  0.00000000E+00  0.00000000E+00
  0.00000000E+00  0.00000000E+00  0.00000000E+00
  0.00000000E+00  0.00000000E+00  0.00000000E+00
  0.00000000E+00  0.00000000E+00  0.00000000E+00
  0.00000000E+00  0.00000000E+00  0.00000000E+00
  0.00000000E+00  0.00000000E+00  0.00000000E+00
  0.00000000E+00  0.00000000E+00  0.00000000E+00
  0.00000000E+00  0.00000000E+00  0.00000000E+00
  0.00000000E+00  0.00000000E+00  0.00000000E+00
  0.00000000E+00  0.00000000E+00  0.00000000E+00
  0.00000000E+00  0.00000000E+00  0.00000000E+00
  0.00000000E+00  0.00000000E+00  0.00000000E+00
  0.00000000E+00  0.00000000E+00  0.00000000E+00
  0.00000000E+00  0.00000000E+00  0.00000000E+00
  0.00000000E+00  0.00000000E+00  0.00000000E+00
  0.00000000E+00  0.00000000E+00  0.00000000E+00
  0.00000000E+00  0.00000000E+00  0.00000000E+00
  0.00000000E+00  0.00000000E+00  0.00000000E+00
  0.00000000E+00  0.00000000E+00  0.00000000E+00
  0.00000000E+00  0.00000000E+00  0.00000000E+00
  0.00000000E+00  0.00000000E+00  0.00000000E+00
  0.00000000E+00  0.00000000E+00  0.00000000E+00
  0.00000000E+00  0.00000000E+00  0.00000000E+00
  0.00000000E+00  0.00000000E+00  0.00000000E+00
  0.00000000E+00  0.00000000E+00  0.00000000E+00
  0.00000000E+00  0.00000000E+00  0.00000000E+00
  0.00000000E+00  0.00000000E+00  0.00000000E+00
  0.00000000E+00  0.00000000E+00  0.00000000E+00
  0.00000000E+00  0.00000000E+00  0.00000000E+00
  0.00000000E+00  0.00000000E+00  0.00000000E+00
  0.00000000E+00  0.00000000E+00  0.00000000E+00
  0.00000000E+00  0.00000000E+00  0.00000000E+00
  0.00000000E+00  0.00000000E+00  0.00000000E+00
  0.00000000E+00  0.00000000E+00  0.00000000E+00
  0.00000000E+00  0.00000000E+00  0.00000000E+00
  0.00000000E+00  0.00000000E+00  0.00000000E+00
  0.00000000E+00  0.00000000E+00  0.00000000E+00
  0.00000000E+00  0.00000000E+00  0.00000000E+00
  0.00000000E+00  0.00000000E+00  0.00000000E+00
  0.00000000E+00  0.00000000E+00  0.00000000E+00
  0.00000000E+00  0.00000000E+00  0.00000000E+00
  0.00000000E+00  0.00000000E+00  0.00000000E+00
  0.00000000E+00  0.00000000E+00  0.00000000E+00
  0.00000000E+00  0.00000000E+00  0.00000000E+00
  0.00000000E+00  0.00000000E+00  0.00000000E+00
  0.00000000E+00  0.00000000E+00  0.00000000E+00
  0.00000000E+00  0.00000000E+00  0.00000000E+00
  0.00000000E+00  0.00000000E+00  0.00000000E+00
  0.00000000E+00  0.00000000E+00  0.00000000E+00
  0.00000000E+00  0.00000000E+00  0.00000000E+00
  0.00000000E+00  0.00000000E+00  0.00000000E+00
  0.00000000E+00  0.00000000E+00  0.00000000E+00
  0.00000000E+00  0.00000000E+00  0.00000000E+00
  0.00000000E+00  0.00000000E+00  0.00000000E+00
  0.00000000E+00  0.00000000E+00  0.00000000E+00
  0.00000000E+00  0.00000000E+00  0.00000000E+00
  0.00000000E+00  0.00000000E+00  0.00000000E+00
  0.00000000E+00  0.00000000E+00  0.00000000E+00
  0.00000000E+00  0.00000000E+00  0.00000000E+00
  0.00000000E+00  0.00000000E+00  0.00000000E+00
  0.00000000E+00  0.00000000E+00  0.00000000E+00
  0.00000000E+00  0.00000000E+00  0.00000000E+00
  0.00000000E+00  0.00000000E+00  0.00000000E+00
  0.00000000E+00  0.00000000E+00  0.00000000E+00
  0.00000000E+00  0.00000000E+00  0.00000000E+00
  0.00000000E+00  0.00000000E+00  0.00000000E+00
  0.00000000E+00  0.00000000E+00  0.00000000E+00
  0.00000000E+00  0.00000000E+00  0.00000000E+00
  0.00000000E+00  0.00000000E+00  0.00000000E+00
  0.00000000E+00  0.00000000E+00  0.00000000E+00
  0.00000000E+00  0.00000000E+00  0.00000000E+00
  0.00000000E+00  0.00000000E+00  0.00000000E+00
  0.00000000E+00  0.00000000E+00  0.00000000E+00
  0.00000000E+00  0.00000000E+00  0.00000000E+00
  0.00000000E+00  0.00000000E+00  0.00000000E+00
  0.00000000E+00  0.00000000E+00  0.00000000E+00
  0.00000000E+00  0.00000000E+00  0.00000000E+00
  0.00000000E+00  0.00000000E+00  0.00000000E+00
  0.00000000E+00  0.00000000E+00  0.00000000E+00
  0.00000000E+00  0.00000000E+00  0.00000000E+00
  0.00000000E+00  0.00000000E+00  0.00000000E+00
  0.00000000E+00  0.00000000E+00  0.00000000E+00
  0.00000000E+00  0.00000000E+00  0.00000000E+00
  0.00000000E+00  0.00000000E+00  0.00000000E+00
  0.00000000E+00  0.00000000E+00  0.00000000E+00
  0.00000000E+00  0.00000000E+00  0.00000000E+00
  0.00000000E+00  0.00000000E+00  0.00000000E+00
  0.00000000E+00  0.00000000E+00  0.00000000E+00
