# Compound: Fe32Li31O16S32. Old comment: Fe32Li31O16S32
  1.0000000000
  7.6911861600  -7.6885056400   0.0000000100
  7.6884112800   7.6911136200  -0.0126780500
 -3.8335882400  -3.8349345400  12.8627506400
Fe    Li    O     S
   32    31    16    32
Direct
  0.9739275700   0.0794580400   0.1587366600
  0.2245253100   0.3295488600   0.1593995000
  0.7243239200   0.3288802800   0.1583186800
  0.9732719600   0.5797116200   0.1592144500
  0.9746462700   0.4216204200   0.3413925800
  0.2233300200   0.6703240800   0.3411811500
  0.7147525700   0.6664575800   0.3467573600
  0.9734982200   0.9202894900   0.3410688000
  0.9734847700   0.0792212400   0.6589242800
  0.2244800000   0.3299314800   0.6589502400
  0.7229078400   0.3286955200   0.6587769000
  0.9746610800   0.5802340000   0.6585963600
  0.9739148000   0.4207066500   0.8412659900
  0.2245180800   0.6701357500   0.8406125800
  0.7243206500   0.6705447400   0.8416939800
  0.9732650400   0.9204963700   0.8407974800
  0.4731280800   0.5804617400   0.1586702400
  0.7239978900   0.8293791900   0.1593856100
  0.2241020500   0.8295387000   0.1586688200
  0.4740082200   0.0800973000   0.1590777600
  0.4744733900   0.9214465300   0.3409927500
  0.7229101600   0.1699109400   0.3412143200
  0.2244825500   0.1709457400   0.3410348900
  0.4812185200   0.4326538300   0.3467456200
  0.4812100200   0.5859362900   0.6532481400
  0.7147284800   0.8196657800   0.6532286200
  0.2233152200   0.8291731900   0.6588111500
  0.4744604500   0.0804699500   0.6589982700
  0.4731201000   0.9217963500   0.8413466600
  0.7239943200   0.1699874100   0.8406242600
  0.2240907500   0.1708630900   0.8413407300
  0.4739864200   0.4210132900   0.8409308300
  0.0811640500   0.1429857900   0.0000170700
  0.8672887400   0.8567317500   0.0002362900
  0.8672898500   0.3564907000  -0.0002411100
  0.0811710600   0.6429689000  -0.0000136500
  0.1170565200   0.3937664100   0.4999906000
  0.3392173200   0.6108679900   0.4999880400
  0.8231809900   0.6037653600   0.4999986000
  0.6203739800   0.4006839800   0.4999982300
  0.0808234800   0.1433122600   0.4999923100
  0.8703132300   0.8567944800   0.5000052600
  0.8675900400   0.3561987800   0.4999943500
  0.0815271200   0.6428287700   0.4999948900
  0.1170015900   0.3930436800   0.0002316600
  0.3305871900   0.6067863800   0.0001178100
  0.8309218200   0.6069999600   0.0003294200
  0.6175447600   0.3937006800   0.0004458100
  0.5806838600   0.6433765400  -0.0003842600
  0.3674613800   0.3570726600   0.0004689400
  0.3674600800   0.8566091900  -0.0004567300
  0.5806854300   0.1437751100   0.0004110100
  0.6131714100   0.8852629500   0.4999854900
  0.8300877800   0.1071554800   0.4999941400
  0.3310547600   0.1058291400   0.4999914000
  0.1181742700   0.8932354900   0.4999926500
  0.3674567700   0.3536350700   0.5000016600
  0.3689612100   0.8554203000   0.4999797200
  0.5811661200   0.1426365300   0.5000010600
  0.6175411800   0.8932549800  -0.0004214200
  0.8309231700   0.1066685200  -0.0003315700
  0.3305852700   0.1066704900  -0.0001012700
  0.1170036400   0.8928145800  -0.0002255000
  0.2233753800   0.2494436600   0.4999987100
  0.4743194600   0.5002869300   0.0000088500
  0.9736853100   0.5001349800   0.0003381200
  0.2256792400   0.7499885400   0.5000006200
  0.2244640100   0.2502692700   0.0003788600
  0.4702237500   0.4929715700   0.4999999800
  0.9722578600   0.5007759200   0.5000043000
  0.2244659700   0.7498834200  -0.0003874400
  0.7309743200   0.7539302500   0.5000201500
  0.9736820100  -0.0002117200  -0.0003581500
  0.4743210200   0.0002762300  -0.0000075500
  0.7232383600   0.2518088800   0.5000029900
  0.7238803100   0.7498970000   0.0001910000
  0.9746179200   0.0008012800   0.5000046200
  0.4741298600  -0.0015428200   0.5000025800
  0.7238808700   0.2497016400  -0.0002042200
  0.9741032000   0.3255740600   0.1516656100
  0.2240678900   0.5761578100   0.1514687900
  0.7240294300   0.5773090200   0.1553567400
  0.9742645200   0.8260081900   0.1512262300
  0.9741244200   0.1738847000   0.3478488500
  0.2216823100   0.4244885400   0.3480893600
  0.7260723500   0.4212712700   0.3465555500
  0.9780632100   0.6746650900   0.3476190000
  0.9741285300   0.3260243200   0.6521357800
  0.2216878800   0.5763848900   0.6518994700
  0.7260650800   0.5747133600   0.6534318400
  0.9780709600   0.8270390500   0.6523695800
  0.9742663300   0.1747910700   0.8487896600
  0.2238103800   0.4243083700   0.8488408800
  0.7242967800   0.4243294300   0.8489571100
  0.9741030800   0.6739196000   0.8483452500
  0.4739105800   0.8256008300   0.1508438700
  0.7243022500   0.0753687000   0.1510513400
  0.2238011400   0.0754733500   0.1511700200
  0.4743118800   0.3276058800   0.1552466800
  0.4733571000   0.6740645900   0.3466801600
  0.7236938600   0.9263729900   0.3480290500
  0.2238196300   0.9240973200   0.3476786500
  0.4732553200   0.1697202400   0.3474182800
  0.4733458800   0.8273908200   0.6533237300
  0.7236869400   0.0783443100   0.6519634700
  0.2238266200   0.0764105400   0.6523159600
  0.4732509600   0.3222967600   0.6525793700
  0.4743098300   0.6723599200   0.8447559600
  0.7240229500   0.9219538600   0.8446462300
  0.2240711000   0.9246927500   0.8485341600
  0.4739038200   0.1747675000   0.8491708900
