# Compound: Fe32Li31O16S32. Old comment:
   1.0000000000000000     
     7.6911861600000000   -7.6885056399999998    0.0000000100000000
     7.6884112800000004    7.6911136200000003   -0.0126780500000000
    -3.8335882400000001   -3.8349345399999999   12.8627506399999998
   Fe   Li   O    S 
    32    31    16    32
Direct
  0.9735919896000027  0.0808121061999998  0.1590722665999991
  0.2244446070000023  0.3309017183999998  0.1601873020999989
  0.7245727248999998  0.3295184229000014  0.1576671799999971
  0.9733301619000017  0.5806554326999986  0.1584154916000031
  0.9713912193999974  0.4254218174000002  0.3422357506999987
  0.2219970431000036  0.6707682871999978  0.3411744523999971
  0.7171740492999987  0.6694470700999986  0.3459108684999990
  0.9727790206000009  0.9207441137000032  0.3410439792000020
  0.9727813459000032  0.0797118345000030  0.6589559259000026
  0.2233363133999973  0.3310515514000016  0.6586293563999988
  0.7234149276999986  0.3277226976000023  0.6589672775999986
  0.9713975726999990  0.5832133938000013  0.6577760623000017
  0.9735767171000020  0.4217527859999990  0.8409214029000012
  0.2244363917000030  0.6707146569000031  0.8398085179999981
  0.7245109276000008  0.6718157175000030  0.8423316645000014
  0.9733069820999987  0.9222492832999976  0.8415757753000008
  0.4728457615999986  0.5821786946999978  0.1586197053999996
  0.7233483432000014  0.8302504867000025  0.1593063661999992
  0.2238058566000021  0.8300424330999974  0.1584193747000029
  0.4735671239999988  0.0816189614999985  0.1598454581000013
  0.4736046160000029  0.9225077306000031  0.3410119511000005
  0.7234431259999994  0.1687570511000018  0.3410387162000035
  0.2233217352999972  0.1724204053999969  0.3413615726000003
  0.4829534431000013  0.4354152833999976  0.3469298874000017
  0.4829275721999977  0.5883814330000021  0.6530671323000021
  0.7171475840000028  0.8235139523999990  0.6540873073000029
  0.2219898009999994  0.8296113238999965  0.6588257561000006
  0.4736188693999992  0.0814796985999990  0.6589868980000020
  0.4728434996999979  0.9235546562999986  0.8413836590000017
  0.7233071579999972  0.1709404047999996  0.8406967506000029
  0.2237702903999974  0.1716083598999987  0.8415751523000026
  0.4735580202000023  0.4217692189999980  0.8401651192000017
  0.0807888551000033  0.1445213327000019  0.0009084205999983
  0.8674853971999994  0.8568961384000033  0.0008011028999988
  0.8674893562999983  0.3560761369000005  0.9991663288000012
  0.0807904524999969  0.6436209399999981  0.9990997713000027
  0.1129102292999988  0.3938208146999997  0.5000172259000024
  0.3440190728000019  0.6179062372999979  0.5000101818000005
  0.8034674303000031  0.5927910449999985  0.4999956938000025
  0.6100354809999970  0.3864691272000016  0.4999817914999980
  0.0813230766000004  0.1419174871999971  0.4999904284999985
  0.8712820781000019  0.8514814978000018  0.5000048149999969
  0.8670569506999968  0.3529269001000017  0.5000228629000034
  0.0791929101999997  0.6428130054000007  0.4999963954999984
  0.1172476536000033  0.3943003078999965  0.0002904935999979
  0.3303245849999996  0.6074281794000029  0.9992638975000006
  0.8296039996999980  0.6064987999999971  0.0007649379000014
  0.6167749486999980  0.3940121221000012  0.0001562290999999
  0.5796007104000012  0.6440188198000030  0.9990193153000035
  0.3671865792999967  0.3583582624999977  0.0009754935000004
  0.3671998436999999  0.8573728443999968  0.9990241364999974
  0.5796039005999987  0.1450145203999966  0.0010110859999983
  0.6023867190999965  0.8728418836000031  0.4999943004999992
  0.8294433809000026  0.1027164258999989  0.5000129828000013
  0.3351152625999987  0.1125932096000000  0.4999923109999997
  0.1171918646999970  0.8944258415000022  0.5000020509000009
  0.3609187634000008  0.3618988273000028  0.4999641253999982
  0.3608774969000024  0.8624995372000015  0.4999999894999974
  0.5865621176000033  0.1338277163999990  0.4999966469000015
  0.6167834138000003  0.8938768105999984  0.9998745112999998
  0.8296007940000010  0.1057259060000035  0.9992260961999975
  0.3303324813999993  0.1081732720000019  0.0007352522000019
  0.1172482664999990  0.8940082901999986  0.9997064358000003
  0.2219135662000014  0.2514582578999978  0.4999967870000006
  0.4739149863999970  0.5009514022999966  0.9996506522000033
  0.9735221847999966  0.5004946728999968  0.9999146822000000
  0.2233764834999974  0.7513045773999991  0.4999992250000034
  0.2239662507000020  0.2515784882999981  0.0008717243999996
  0.4709101117000003  0.4950850186000011  0.4999928837000027
  0.9670328959999992  0.5012052281999999  0.5000063641000025
  0.2239703234999979  0.7507060757000019  0.9991260102000012
  0.7297697352000014  0.7507009918000023  0.4999991518999991
  0.9735211220000011  0.0005760104000032  0.0000782382999986
  0.4739187500999975  0.0013055287000014  0.0003574078999975
  0.7240061522999994  0.2471953546999970  0.5000026534000028
  0.7234182533999984  0.7498375131999993  0.0003500608000024
  0.9735532258999982  0.9988452296000006  0.5000005578000000
  0.4730419979999994  0.9978815816999997  0.5000008334000015
  0.7234208543000022  0.2494907665999975  0.9996521921000010
  0.9732155132999978  0.3265408477000022  0.1525089374000004
  0.2241923686000007  0.5771708262999979  0.1514776522000005
  0.7237314476000023  0.5763385186999983  0.1548359080999973
  0.9740820469000013  0.8261434425999994  0.1512988793000005
  0.9736833637999993  0.1730202667000000  0.3480412963000035
  0.2205758400000022  0.4263460394000020  0.3489780888000027
  0.7231235519999970  0.4161802588999990  0.3452843302999966
  0.9770529397000018  0.6742192776999971  0.3463774208000032
  0.9736879773999974  0.3249684357000007  0.6519577647000006
  0.2205890732000029  0.5773693504999997  0.6510214977000004
  0.7231194547999991  0.5708921953999990  0.6547126457999966
  0.9770598343000003  0.8278407708999964  0.6536196054000030
  0.9740835388000022  0.1748395859999974  0.8486983163999966
  0.2235366557999967  0.4250818078999998  0.8481760522999977
  0.7238168825999978  0.4231451825000008  0.8489862475000010
  0.9732171612999991  0.6740311653000006  0.8474921226999967
  0.4731865377000020  0.8260943813999972  0.1508009534000010
  0.7238198981999986  0.0741652869999996  0.1510189939999975
  0.2235333551999972  0.0769046687000028  0.1518190258999965
  0.4733111533000027  0.3282899204000032  0.1554779777000022
  0.4725949780999983  0.6755083158000019  0.3472320776999993
  0.7226379015000006  0.9228999664000028  0.3476978790000018
  0.2234901154999989  0.9255159929000030  0.3480333281000014
  0.4730278412000004  0.1702842644999976  0.3487320455000003
  0.4725975937000015  0.8282590250000013  0.6527708993999966
  0.7226312477000008  0.0752016591999976  0.6523054084999984
  0.2234955277999973  0.0774794614999976  0.6519628735999987
  0.4730279600000031  0.3215748550000015  0.6512696838999972
  0.4733153028999979  0.6728035424999987  0.8445266709000023
  0.7237306596000010  0.9214965289000006  0.8451642368000023
  0.2241995473999978  0.9256935124999970  0.8485213438000017
  0.4731885261999977  0.1752968682000002  0.8492005395999982

             NaN             NaN             NaN
             NaN             NaN             NaN
             NaN             NaN             NaN
             NaN             NaN             NaN
             NaN             NaN             NaN
             NaN             NaN             NaN
             NaN             NaN             NaN
             NaN             NaN             NaN
             NaN             NaN             NaN
             NaN             NaN             NaN
             NaN             NaN             NaN
             NaN             NaN             NaN
             NaN             NaN             NaN
             NaN             NaN             NaN
             NaN             NaN             NaN
             NaN             NaN             NaN
             NaN             NaN             NaN
             NaN             NaN             NaN
             NaN             NaN             NaN
             NaN             NaN             NaN
             NaN             NaN             NaN
             NaN             NaN             NaN
             NaN             NaN             NaN
             NaN             NaN             NaN
             NaN             NaN             NaN
             NaN             NaN             NaN
             NaN             NaN             NaN
             NaN             NaN             NaN
             NaN             NaN             NaN
             NaN             NaN             NaN
             NaN             NaN             NaN
             NaN             NaN             NaN
             NaN             NaN             NaN
             NaN             NaN             NaN
             NaN             NaN             NaN
             NaN             NaN             NaN
             NaN             NaN             NaN
             NaN             NaN             NaN
             NaN             NaN             NaN
             NaN             NaN             NaN
             NaN             NaN             NaN
             NaN             NaN             NaN
             NaN             NaN             NaN
             NaN             NaN             NaN
             NaN             NaN             NaN
             NaN             NaN             NaN
             NaN             NaN             NaN
             NaN             NaN             NaN
             NaN             NaN             NaN
             NaN             NaN             NaN
             NaN             NaN             NaN
             NaN             NaN             NaN
             NaN             NaN             NaN
             NaN             NaN             NaN
             NaN             NaN             NaN
             NaN             NaN             NaN
             NaN             NaN             NaN
             NaN             NaN             NaN
             NaN             NaN             NaN
             NaN             NaN             NaN
             NaN             NaN             NaN
             NaN             NaN             NaN
             NaN             NaN             NaN
             NaN             NaN             NaN
             NaN             NaN             NaN
             NaN             NaN             NaN
             NaN             NaN             NaN
             NaN             NaN             NaN
             NaN             NaN             NaN
             NaN             NaN             NaN
             NaN             NaN             NaN
             NaN             NaN             NaN
             NaN             NaN             NaN
             NaN             NaN             NaN
             NaN             NaN             NaN
             NaN             NaN             NaN
             NaN             NaN             NaN
             NaN             NaN             NaN
             NaN             NaN             NaN
             NaN             NaN             NaN
             NaN             NaN             NaN
             NaN             NaN             NaN
             NaN             NaN             NaN
             NaN             NaN             NaN
             NaN             NaN             NaN
             NaN             NaN             NaN
             NaN             NaN             NaN
             NaN             NaN             NaN
             NaN             NaN             NaN
             NaN             NaN             NaN
             NaN             NaN             NaN
             NaN             NaN             NaN
             NaN             NaN             NaN
             NaN             NaN             NaN
             NaN             NaN             NaN
             NaN             NaN             NaN
             NaN             NaN             NaN
             NaN             NaN             NaN
             NaN             NaN             NaN
             NaN             NaN             NaN
             NaN             NaN             NaN
             NaN             NaN             NaN
             NaN             NaN             NaN
             NaN             NaN             NaN
             NaN             NaN             NaN
             NaN             NaN             NaN
             NaN             NaN             NaN
             NaN             NaN             NaN
             NaN             NaN             NaN
             NaN             NaN             NaN
             NaN             NaN             NaN
