# Compound: Fe32Li31O16S32. Old comment: Fe32Li31O16S32
  1.0000000000
  7.6911861600  -7.6885056400   0.0000000100
  7.6884112800   7.6911136200  -0.0126780500
 -3.8335882400  -3.8349345400  12.8627506400
Fe    Li    O     S
   32    31    16    32
Direct
  0.9735919896   0.0808121062   0.1590722666
  0.2244446070   0.3309017184   0.1601873021
  0.7245727249   0.3295184229   0.1576671800
  0.9733301619   0.5806554327   0.1584154916
  0.9713912194   0.4254218174   0.3422357507
  0.2219970431   0.6707682872   0.3411744524
  0.7171740493   0.6694470701   0.3459108685
  0.9727790206   0.9207441137   0.3410439792
  0.9727813459   0.0797118345   0.6589559259
  0.2233363134   0.3310515514   0.6586293564
  0.7234149277   0.3277226976   0.6589672776
  0.9713975727   0.5832133938   0.6577760623
  0.9735767171   0.4217527860   0.8409214029
  0.2244363917   0.6707146569   0.8398085180
  0.7245109276   0.6718157175   0.8423316645
  0.9733069821   0.9222492833   0.8415757753
  0.4728457616   0.5821786947   0.1586197054
  0.7233483432   0.8302504867   0.1593063662
  0.2238058566   0.8300424331   0.1584193747
  0.4735671240   0.0816189615   0.1598454581
  0.4736046160   0.9225077306   0.3410119511
  0.7234431260   0.1687570511   0.3410387162
  0.2233217353   0.1724204054   0.3413615726
  0.4829534431   0.4354152834   0.3469298874
  0.4829275722   0.5883814330   0.6530671323
  0.7171475840   0.8235139524   0.6540873073
  0.2219898010   0.8296113239   0.6588257561
  0.4736188694   0.0814796986   0.6589868980
  0.4728434997   0.9235546563   0.8413836590
  0.7233071580   0.1709404048   0.8406967506
  0.2237702904   0.1716083599   0.8415751523
  0.4735580202   0.4217692190   0.8401651192
  0.0807888551   0.1445213327   0.0009084206
  0.8674853972   0.8568961384   0.0008011029
  0.8674893563   0.3560761369   0.9991663288
  0.0807904525   0.6436209400   0.9990997713
  0.1129102293   0.3938208147   0.5000172259
  0.3440190728   0.6179062373   0.5000101818
  0.8034674303   0.5927910450   0.4999956938
  0.6100354810   0.3864691272   0.4999817915
  0.0813230766   0.1419174872   0.4999904285
  0.8712820781   0.8514814978   0.5000048150
  0.8670569507   0.3529269001   0.5000228629
  0.0791929102   0.6428130054   0.4999963955
  0.1172476536   0.3943003079   0.0002904936
  0.3303245850   0.6074281794   0.9992638975
  0.8296039997   0.6064988000   0.0007649379
  0.6167749487   0.3940121221   0.0001562291
  0.5796007104   0.6440188198   0.9990193153
  0.3671865793   0.3583582625   0.0009754935
  0.3671998437   0.8573728444   0.9990241365
  0.5796039006   0.1450145204   0.0010110860
  0.6023867191   0.8728418836   0.4999943005
  0.8294433809   0.1027164259   0.5000129828
  0.3351152626   0.1125932096   0.4999923110
  0.1171918647   0.8944258415   0.5000020509
  0.3609187634   0.3618988273   0.4999641254
  0.3608774969   0.8624995372   0.4999999895
  0.5865621176   0.1338277164   0.4999966469
  0.6167834138   0.8938768106   0.9998745113
  0.8296007940   0.1057259060   0.9992260962
  0.3303324814   0.1081732720   1.0007352522
  0.1172482665   0.8940082902   0.9997064358
  0.2219135662   0.2514582579   0.4999967870
  0.4739149864   0.5009514023  -0.0003493478
  0.9735221848   0.5004946729  -0.0000853178
  0.2233764835   0.7513045774   0.4999992250
  0.2239662507   0.2515784883   0.0008717244
  0.4709101117   0.4950850186   0.4999928837
  0.9670328960   0.5012052282   0.5000063641
  0.2239703235   0.7507060757   0.9991260102
  0.7297697352   0.7507009918   0.4999991519
  0.9735211220   1.0005760104   1.0000782383
  0.4739187501   0.0013055287   1.0003574079
  0.7240061523   0.2471953547   0.5000026534
  0.7234182534   0.7498375132   0.0003500608
  0.9735532259  -0.0011547704   0.5000005578
  0.4730419980   0.9978815817   0.5000008334
  0.7234208543   0.2494907666   0.9996521921
  0.9732155133   0.3265408477   0.1525089374
  0.2241923686   0.5771708263   0.1514776522
  0.7237314476   0.5763385187   0.1548359081
  0.9740820469   0.8261434426   0.1512988793
  0.9736833638   0.1730202667   0.3480412963
  0.2205758400   0.4263460394   0.3489780888
  0.7231235520   0.4161802589   0.3452843303
  0.9770529397   0.6742192777   0.3463774208
  0.9736879774   0.3249684357   0.6519577647
  0.2205890732   0.5773693505   0.6510214977
  0.7231194548   0.5708921954   0.6547126458
  0.9770598343   0.8278407709   0.6536196054
  0.9740835388   0.1748395860   0.8486983164
  0.2235366558   0.4250818079   0.8481760523
  0.7238168826   0.4231451825   0.8489862475
  0.9732171613   0.6740311653   0.8474921227
  0.4731865377   0.8260943814   0.1508009534
  0.7238198982   0.0741652870   0.1510189940
  0.2235333552   0.0769046687   0.1518190259
  0.4733111533   0.3282899204   0.1554779777
  0.4725949781   0.6755083158   0.3472320777
  0.7226379015   0.9228999664   0.3476978790
  0.2234901155   0.9255159929   0.3480333281
  0.4730278412   0.1702842645   0.3487320455
  0.4725975937   0.8282590250   0.6527708994
  0.7226312477   0.0752016592   0.6523054085
  0.2234955278   0.0774794615   0.6519628736
  0.4730279600   0.3215748550   0.6512696839
  0.4733153029   0.6728035425   0.8445266709
  0.7237306596   0.9214965289   0.8451642368
  0.2241995474   0.9256935125   0.8485213438
  0.4731885262   0.1752968682   0.8492005396
