# Compound: Li4Fe2S2O2. Old comment: Fe2
   1.00000000000000     
     3.8876181399999998   -0.0190546400000000    0.0000000000000000
     0.0271694700000000    5.5454705899999999    0.0000000000000000
     0.0000000000000000    0.0000000000000000    5.5391757799999999
   Li   Fe   S    O 
     4     2     2     2
Direct
  0.1064969800000028  0.7266249999999985  0.7141142600000023
  0.1064969800000028  0.2266249999999985  0.2858857399999977
  0.6074911299999997  0.4365808299999969  0.5459445099999982
  0.6074911299999997  0.9365808299999969  0.4540554900000018
  0.6055178399999974  0.0261827499999967  0.9581224900000009
  0.6055178399999974  0.5261827499999967  0.0418775099999991
  0.1057339799999966  0.7390612700000005  0.2406067399999969
  0.1057339799999966  0.2390612700000005  0.7593932600000031
  0.6061310700000035  0.7351921500000032  0.7500114999999994
  0.6061310700000035  0.2351921500000032  0.2499885000000006
 
  0.00000000E+00  0.00000000E+00  0.00000000E+00
  0.00000000E+00  0.00000000E+00  0.00000000E+00
  0.00000000E+00  0.00000000E+00  0.00000000E+00
  0.00000000E+00  0.00000000E+00  0.00000000E+00
  0.00000000E+00  0.00000000E+00  0.00000000E+00
  0.00000000E+00  0.00000000E+00  0.00000000E+00
  0.00000000E+00  0.00000000E+00  0.00000000E+00
  0.00000000E+00  0.00000000E+00  0.00000000E+00
  0.00000000E+00  0.00000000E+00  0.00000000E+00
  0.00000000E+00  0.00000000E+00  0.00000000E+00
