# Compound: Fe24Li31O16S24. Old comment:
   1.0000000000000000     
     7.8866538400000001   -7.9475566999999998    0.0601846200000000
     7.3433505600000002    7.9467915400000004   -2.8792872599999999
    -0.0478291200000000   -0.1071026000000000   10.5527142699999992
   Fe   Li   O    S 
    24    31    16    24
Direct
  0.2685855461961589  0.6673435139285359  0.6036230718501023
  0.2219764364613435  0.3336565787047794  0.4004861274234781
  0.1187137724343517  0.3242131187553420  0.7895746591573515
  0.3736397750660778  0.5784185404228908  0.8176723455042885
  0.8765089526661650  0.1777943145782170  0.1973495758650309
  0.1220798205264241  0.4180278766936223  0.1816718148753520
  0.0157480668739656  0.9170889446111480  0.6045083070151102
  1.0117952475390963  0.6058670174401091  0.3927620447994663
  0.8723366676425985  0.5722936978238103  0.8023382783509895
  0.1240161108215889  0.8290838521834089  0.8186861030841895
  0.6278999259098208  0.4264826892075209  0.2004691884091522
  0.8743986970643015  0.6696177618875480  0.1828101477076849
  0.7696666137761228  0.1637402319812692  0.6037406996659720
  0.7316049788395779  0.8257096548524836  0.4015626857400572
  0.6275843648952433  0.8159295374462665  0.7906521764150044
  0.8752558086329005  0.0783379104925463  0.8169662702570301
  0.3785153521461081  0.6764780188075037  0.1985435147434328
  0.6231666255018485  0.9194456699737710  0.1881291072214290
  0.5114003973606617  0.4182233973502765  0.6034947964023690
  0.4893359198849347  0.0901006084298766  0.3993753599040671
  0.3732123443055861  0.0744215194797231  0.8048047251048629
  0.6230251811693701  0.3270736585370510  0.8147482621577742
  0.1257843509983619  0.9276812748094886  0.2022586179300329
  0.3730971134247580  0.1707169903850851  0.1865434031860609
  0.4775852427111962  0.4756153366226366  0.0065086959055618
  0.0304116528116964  0.5277319992738927  0.9967244561771011
  0.8512435095141180  0.5207214298394728  0.5312205695563340
  0.0238018940663823  0.1388986009952860  0.3994464242051564
  0.8770296779773851  0.3386650807365746  0.8394254717792767
  0.1181180755844576  0.5588360910744390  0.7576181845933667
  0.1239447734349454  0.1614263116417291  0.1529785274244141
  0.3765389392935218  0.4348979392822011  0.2329847870348188
  0.2283220734321480  0.7290196619327979  0.0035830239421195
  0.7788630712054432  0.7822790461575112  1.0007972634370850
  0.7264141552359012  0.3197390410949862  0.3927672294213148
  0.6284152988816208  0.5853810363652083  0.8391839327595301
  0.8701447777555174  0.8098051965635864  0.7633383402947158
  0.8742121585007654  0.4195750145242165  0.1775839500824739
  0.1310568055946985  0.6825246417358142  0.2110475168484835
  0.9727751428290771  0.9767132657305596  0.0074778902146998
  0.5229296155536080  0.0139237805952728  0.9927231429073479
  0.4750165987148608  0.8817753818945638  0.6083873696846470
  0.5339467891031598  0.6236716691883825  0.3982019268568516
  0.3774525930299286  0.8336061257677042  0.8410537573051586
  0.6229019893928567  0.0656550227461032  0.7759123582628609
  0.6252312501702971  0.6610915902936718  0.1527617589098366
  0.8772143798849911  0.9373616115781864  0.2375209741143329
  0.7333006614035216  0.2360997440200332  0.0031003086852368
  0.2734551689713784  0.2765144219197861  0.9956072645030164
  0.2298944798763336  0.1266037082242549  0.6084045835255967
  0.2695597625331132  0.8673635982230719  0.3939156035213042
  0.1237161748126737  0.0891043859038719  0.8455655759874877
  0.3712767040342171  0.3157692216965713  0.7737700678967696
  0.3734701603715022  0.9132953295869656  0.1548917990401690
  0.6240612931641224  0.1722234049515793  0.1969243074620883
  0.9999254202558727  0.4574098829932641  0.8169172478579281
  0.2469049115563881  0.7000610582890370  0.8093118741131987
  0.0003555529217504  0.0530033536934704  0.2010563934945669
  0.2492045293660095  0.2989795482448342  0.1947268292584217
  0.7536602400002672  0.7041385196956367  0.8192616860977429
  0.9976603922955297  0.9499071628719727  0.8119627340585207
  0.7481695307607662  0.2979000765622212  0.1955197883723455
  0.0039565250124038  0.5502144207116959  0.1860871032364455
  0.5008103878715026  0.9472366945369688  0.8045705644534270
  0.7498311351061473  0.2013980324484126  0.8093844668083748
  0.5022860171689617  0.5492694513144509  0.1995358752917067
  0.7509938237050503  0.7996925287394240  0.1956796013759126
  0.2469230414728223  0.2027629292620695  0.8067359513880367
  0.4975312335367301  0.4511925827012344  0.8113968081668863
  0.2532192369474637  0.8022730061614002  0.1954682452361491
  0.4979166715672300  0.0454766093360111  0.1907087741910600
  0.9970552657865055  0.2475144612189676  1.0029556673665865
  0.2544217376972028  0.5043269790406695  0.0075641279785652
  0.0013719848369495  0.3570894672537218  0.3666992675870141
  0.2433277463159041  0.5908556046519190  0.3683578636282753
  0.9952873942710188  0.1478336686883776  0.6344103567433288
  0.2588119946225048  0.4121776514110956  0.6317300391207193
  0.7463722454845851  0.4961442568887607  0.0030213068810214
  0.0040884676379204  0.7567505786495776  0.0097631801426268
  0.7607200227218660  0.5966397106159412  0.3635759621785765
  1.0003901084223730  0.8338025634183363  0.3687210971201839
  0.7379286139550794  0.3982127096600958  0.6368417083733747
  0.0076891524258782  0.6677845173034892  0.6307545424335547
  0.4981628884797321  0.7490408032470806  0.0030834969534424
  0.7495955968116491  0.0061569305819314  0.0076642901201311
  0.5057924813501837  0.8471411670097845  0.3696678753792746
  0.7410780912268726  0.0915122734750486  0.3686038406231593
  0.4905993813843916  0.6526132557119335  0.6352726740171630
  0.7552356952528770  0.9159933627178318  0.6333253030667777
  0.2506350391460185  0.0006148230935209  0.9996722078149416
  0.4993959799161240  0.2468045380993303  1.0014699878379822
  0.2544678787206771  0.0989400053915443  0.3687602332731548
  0.5002082177484094  0.3329951636382459  0.3668658455661605
  0.2448384764281682  0.9034759579892474  0.6359322414756509
  0.5013289690446846  0.1607403659169857  0.6355899083515821

             NaN             NaN             NaN
             NaN             NaN             NaN
             NaN             NaN             NaN
             NaN             NaN             NaN
             NaN             NaN             NaN
             NaN             NaN             NaN
             NaN             NaN             NaN
             NaN             NaN             NaN
             NaN             NaN             NaN
             NaN             NaN             NaN
             NaN             NaN             NaN
             NaN             NaN             NaN
             NaN             NaN             NaN
             NaN             NaN             NaN
             NaN             NaN             NaN
             NaN             NaN             NaN
             NaN             NaN             NaN
             NaN             NaN             NaN
             NaN             NaN             NaN
             NaN             NaN             NaN
             NaN             NaN             NaN
             NaN             NaN             NaN
             NaN             NaN             NaN
             NaN             NaN             NaN
             NaN             NaN             NaN
             NaN             NaN             NaN
             NaN             NaN             NaN
             NaN             NaN             NaN
             NaN             NaN             NaN
             NaN             NaN             NaN
             NaN             NaN             NaN
             NaN             NaN             NaN
             NaN             NaN             NaN
             NaN             NaN             NaN
             NaN             NaN             NaN
             NaN             NaN             NaN
             NaN             NaN             NaN
             NaN             NaN             NaN
             NaN             NaN             NaN
             NaN             NaN             NaN
             NaN             NaN             NaN
             NaN             NaN             NaN
             NaN             NaN             NaN
             NaN             NaN             NaN
             NaN             NaN             NaN
             NaN             NaN             NaN
             NaN             NaN             NaN
             NaN             NaN             NaN
             NaN             NaN             NaN
             NaN             NaN             NaN
             NaN             NaN             NaN
             NaN             NaN             NaN
             NaN             NaN             NaN
             NaN             NaN             NaN
             NaN             NaN             NaN
             NaN             NaN             NaN
             NaN             NaN             NaN
             NaN             NaN             NaN
             NaN             NaN             NaN
             NaN             NaN             NaN
             NaN             NaN             NaN
             NaN             NaN             NaN
             NaN             NaN             NaN
             NaN             NaN             NaN
             NaN             NaN             NaN
             NaN             NaN             NaN
             NaN             NaN             NaN
             NaN             NaN             NaN
             NaN             NaN             NaN
             NaN             NaN             NaN
             NaN             NaN             NaN
             NaN             NaN             NaN
             NaN             NaN             NaN
             NaN             NaN             NaN
             NaN             NaN             NaN
             NaN             NaN             NaN
             NaN             NaN             NaN
             NaN             NaN             NaN
             NaN             NaN             NaN
             NaN             NaN             NaN
             NaN             NaN             NaN
             NaN             NaN             NaN
             NaN             NaN             NaN
             NaN             NaN             NaN
             NaN             NaN             NaN
             NaN             NaN             NaN
             NaN             NaN             NaN
             NaN             NaN             NaN
             NaN             NaN             NaN
             NaN             NaN             NaN
             NaN             NaN             NaN
             NaN             NaN             NaN
             NaN             NaN             NaN
             NaN             NaN             NaN
             NaN             NaN             NaN
