# Compound: Fe24Li31O16S24. Old comment: Li4Fe3S3O2 Enum Minimum PATH4 INIT FRAME 03
  1.0000000000
  7.8866538400  -7.9475567000   0.0601846200
  7.3433505600   7.9467915400  -2.8792872600
 -0.0478291200  -0.1071026000  10.5527142700
Fe    Li    O     S
   24    31    16    24
Direct
  0.2641482700   0.6656100250   0.6019230200
  0.2327062300   0.3350051000   0.3986189800
  0.1212369800   0.3249058000   0.7959272600
  0.3749229100   0.5792905250   0.8154295200
  0.8756453850   0.1757251000   0.1979371550
  0.1236140050   0.4202427950   0.1844137650
  0.0152729650  -0.0854544550   0.6021274350
 -0.0177139450   0.5820269200   0.3988875150
  0.8732780000   0.5708106550   0.7889950400
  0.1251939950   0.8292886000   0.8166858800
  0.6272348150   0.4261508700   0.1982371850
  0.8735298200   0.6696549700   0.1853104350
  0.7679258550   0.1673636450   0.6018125000
  0.7352221800   0.8322631850   0.3994032750
  0.6261531950   0.8206735100   0.7960887450
  0.8755736850   0.0788754900   0.8148876400
  0.3761935000   0.6750776900   0.1983880450
  0.6243663700  -0.0798157500   0.1857418150
  0.5164305550   0.4181236850   0.6017203450
  0.4854898650   0.0853339950   0.3991436850
  0.3741461250   0.0747857500   0.8030151900
  0.6252907750   0.3288668350   0.8136006400
  0.1245646750  -0.0752618850   0.1982988700
  0.3743626350   0.1707105150   0.1848919050
  0.4769241000   0.4764991600   0.0039867650
  0.0254038100   0.5276615800  -0.0037873850
 -0.1484526550   0.5033419800   0.6064641650
  0.0213566050   0.1245672300   0.3949248700
  0.8759776750   0.3388840350   0.8419169150
  0.1209005300   0.5629408850   0.7658326050
  0.1235690800   0.1629685750   0.1549660650
  0.3768780700   0.4335111600   0.2272363650
  0.2246585350   0.7249034200   0.0046754150
  0.7782653650   0.7745565300  -0.0033264750
  0.7749781250   0.3740226050   0.3968593150
  0.6280998700   0.5865580600   0.8420621250
  0.8716988150   0.8124801200   0.7663385050
  0.8743313450   0.4123871050   0.1544426650
  0.1263950350   0.6836520700   0.2282336450
 -0.0262929400  -0.0238654300   0.0043239550
  0.5263847100   0.0220474350  -0.0044527850
  0.4768322050   0.8795963400   0.6072103900
  0.5255768800   0.6200146800   0.3952921300
  0.3772339700   0.8357905800   0.8437080200
  0.6233917700   0.0659692300   0.7723640600
  0.6242520400   0.6621538700   0.1546403150
  0.8767381800  -0.0661569400   0.2279764700
  0.7258927250   0.2277454700   0.0036126750
  0.2732401550   0.2749749350  -0.0048549850
  0.2279066850   0.1287193200   0.6068858300
  0.2722054800   0.8704758350   0.3933402600
  0.1250370150   0.0880501800   0.8435252950
  0.3725908950   0.3166227100   0.7725238450
  0.3734488900  -0.0872006250   0.1550052400
  0.6272643750   0.1837095150   0.2271331800
 -0.0004959050   0.4544397300   0.8102891250
  0.2483234750   0.7012747900   0.8097792600
  0.0004658200   0.0502551700   0.1956345600
  0.2501664750   0.2980516800   0.1912617850
  0.7516267800   0.7023068550   0.8106308400
 -0.0009975300  -0.0491658150   0.8097070600
  0.7507539750   0.2996727100   0.1954730550
  0.0002267000   0.5481100700   0.1910867000
  0.5006947350  -0.0502460550   0.8054410250
  0.7497731150   0.2015579800   0.8087260250
  0.5010951850   0.5490347650   0.1956755700
  0.7501130250   0.7979677550   0.1918326100
  0.2485046900   0.2018439550   0.8050431600
  0.4991617150   0.4520585650   0.8089293650
  0.2507785650   0.7996326450   0.1958281550
  0.5001321800   0.0478815200   0.1920015650
 -0.0007083650   0.2491036500  -0.0005539100
  0.2514388300   0.5012793100   0.0027112250
  0.0054437050   0.3470074800   0.3644603950
  0.2451856400   0.5864582150   0.3670726950
 -0.0045402150   0.1501086300   0.6334734700
  0.2563235050   0.4130878950   0.6324641100
  0.7472350500   0.4976170000   0.0017167950
  0.0025751100   0.7546168300   0.0065042650
  0.7559491900   0.5966688500   0.3655006000
 -0.0054581800   0.8367550650   0.3676123300
  0.7419624750   0.4007942800   0.6341834500
  0.0076870000   0.6656267000   0.6318112900
  0.4988402700   0.7493042900   0.0015395700
  0.7505796850   0.0022630350   0.0034878050
  0.5054157100   0.8466405150   0.3676326000
  0.7447256600   0.0869863200   0.3676599550
  0.4916377400   0.6539442850   0.6344411500
  0.7548922350  -0.0856612650   0.6331410300
  0.2509515000   0.0008049350  -0.0007660250
  0.4993836800   0.2489774450  -0.0002884600
  0.2548343950   0.0969098400   0.3666845100
  0.4952109650   0.3366026900   0.3670648350
  0.2449957950  -0.0966060400   0.6336543300
  0.5032946450   0.1620600750   0.6337321350
