# Compound: Fe24Li31O16S24. Old comment:
   1.0000000000000000     
     7.8866538400000001   -7.9475566999999998    0.0601846200000000
     7.3433505600000002    7.9467915400000004   -2.8792872599999999
    -0.0478291200000000   -0.1071026000000000   10.5527142699999992
   Fe   Li   O    S 
    24    31    16    24
Direct
  0.2611887028753556  0.6624083347737766  0.6030904769886076
  0.2342254117734983  0.3341921980396593  0.3977283708172669
  0.1166596665561188  0.3250566392440856  0.8027288406014308
  0.3863783768900885  0.5859670037218019  0.8169974857775327
  0.8733857796055542  0.1738858621898882  0.1969858150434381
  0.1242333620955148  0.4226154843680804  0.1845582829364829
  0.0104541594688902  0.9147447715431295  0.6030551636069873
  0.9841733815013004  0.5848533481304897  0.3986401869771840
  0.8853067066943325  0.5937437541363079  0.7942957626200529
  0.1280899636911770  0.8332826225119072  0.8156358224288160
  0.6257624120376037  0.4272242137148511  0.2013097462647773
  0.8712685392053234  0.6698241526763588  0.1867656089498620
  0.7612035443999217  0.1613444069660786  0.6002172163761010
  0.7382982996286944  0.8398405402591619  0.3989029213518309
  0.6214987466469141  0.8176265479580355  0.8019652777329004
  0.8799648678612919  0.0934132685808110  0.8171067558701252
  0.3731225214715760  0.6744698288388057  0.1983554349381405
  0.6250975628866575  0.9205665129001472  0.1829807690217140
  0.5142923647447077  0.4194107577754052  0.6029201266936176
  0.4820541150977689  0.0824424043278648  0.3982122699561368
  0.3749447264182272  0.0764724601588340  0.8028843414183882
  0.6190284108537597  0.3312183794103956  0.8113557680809289
  0.1262429134756632  0.9269864350712901  0.1975767652566836
  0.3735872848431929  0.1704509553829746  0.1836198637563437
  0.4905995704719784  0.4874959984734069  1.0008071519169774
  0.0141616394156985  0.5193627495302660  0.9953653698631766
  0.9743169084497768  0.3793039213805476  0.6055406728301747
  0.0166545574010321  0.1154813489937601  0.3910135217834690
  0.8514570344690425  0.3659360106722186  0.8284170649352017
  0.1325366709743269  0.5655608680872919  0.7833888701899893
  0.1221915148766306  0.1652684533466121  0.1539602011297516
  0.3760843268885584  0.4326951367679027  0.2247420765524400
  0.2240561001197679  0.7257929625934393  0.0039456289309669
  0.7398980681827829  0.7297494913605996  0.9859727591446247
  0.7158870421921353  0.6179117840634516  0.6146156219521791
  0.7758043358834850  0.3731538290389284  0.3929337304584774
  0.8654690604378484  0.8376562164646175  0.7878328457932456
  0.8726743373591679  0.4121164206591376  0.1563709013947559
  0.1237090153102472  0.6836393768789065  0.2219550973543265
  0.9747909868459550  0.9775855562457904  0.0023937873407723
  0.5282393532474876  0.0251726191205822  0.9967784996500556
  0.4782759174565391  0.8813166785530987  0.6081763829295133
  0.5190058014453763  0.6214720647512816  0.3953419972757173
  0.3763830606079516  0.8402194134645274  0.8480194838299618
  0.6257801964368566  0.0658089897375344  0.7783109218173351
  0.6198091110506844  0.6665993733217743  0.1710841566375741
  0.8758095121637026  0.9260396670196862  0.2092147972476344
  0.7251277590819135  0.2341171704908576  0.0036660240697180
  0.2757143901439347  0.2790831904971759  0.9950844892276338
  0.2247993632728269  0.1295221468204011  0.6075841102134267
  0.2705930227101876  0.8686048306221168  0.3937471836084315
  0.1277747685477043  0.0897182250246357  0.8472701637396862
  0.3663203642922727  0.3187066142572010  0.7699662952674443
  0.3753801025143881  0.9113335905608088  0.1543072125554140
  0.6259742648703157  0.1840631700706093  0.2290751748859592
  0.9957098004896918  0.4583986967615258  0.8029295599651323
  0.2532226238432514  0.7042265800761506  0.8117506421759617
  0.0003641754507261  0.0498800198268115  0.1915384710728632
  0.2491253011822473  0.2987717896176704  0.1908511737612975
  0.7563393617949652  0.7071911123713113  0.7982776026117455
  0.0007475288361270  0.9585031481656303  0.8110337216692798
  0.7495445591380875  0.2995949595278886  0.1974404464080972
  0.9975098911600522  0.5485381385283203  0.1928781790479004
  0.5009364948194625  0.9496454486711693  0.8073431870269016
  0.7470974869784838  0.2083700672132187  0.8084596337502868
  0.4980806925517686  0.5495366033665108  0.1975350188744441
  0.7475736536045945  0.7954728997984140  0.1907670420719477
  0.2472061403214876  0.2029933261697545  0.8058499824149583
  0.4919179936311704  0.4454693844970473  0.8039801010774136
  0.2500340718473223  0.7999431231161050  0.1939828993122565
  0.4999156050803329  0.0482477811797621  0.1922539689130655
  0.0002604406237008  0.2557599872287507 -0.0008965185129734
  0.2463705367469537  0.5021628268771740  0.0001813270707356
  0.0043133366336386  0.3471713724341364  0.3662879115656397
  0.2435156119370879  0.5885753844752152  0.3658996636842052
  0.9945017590772676  0.1561677166774477  0.6312819747768074
  0.2526122127083341  0.4167769209231623  0.6305563004007555
  0.7425447926139517  0.4999070321763299  0.0113713036128827
 -0.0003795257248574  0.7514365416648651  0.0017321264581526
  0.7543252366563442  0.5999922313106157  0.3745528303306833
  0.9939472990045357  0.8397873673793823  0.3655667349305387
  0.7435826659456752  0.3993766752669590  0.6286592868585104
  0.0145630030246460  0.6728679295349200  0.6311675800897433
  0.5020195838159762  0.7515121164158709  0.0022358566093319
  0.7513377834455305  0.0040731360034261  0.0004259773446091
  0.5047000819544489  0.8461725825507479  0.3668219658611214
  0.7459979775725263  0.0825926329891573  0.3641970035769423
  0.4927657125173800  0.6551282054594014  0.6312599434237632
  0.7584489442890074  0.9231671377278923  0.6322973500630402
  0.2504639419629560  0.0015653346044073  0.0003074137710209
  0.4975962568127711  0.2485404269791268 -0.0002919212086104
  0.2537894319355156  0.0969292081771920  0.3663591213082135
  0.4925927883072698  0.3364699939236986  0.3678659083506434
  0.2458363845483412  0.9059708970769190  0.6347851423639526
  0.5020860952867525  0.1581159164967086  0.6327927791464438

             NaN             NaN             NaN
             NaN             NaN             NaN
             NaN             NaN             NaN
             NaN             NaN             NaN
             NaN             NaN             NaN
             NaN             NaN             NaN
             NaN             NaN             NaN
             NaN             NaN             NaN
             NaN             NaN             NaN
             NaN             NaN             NaN
             NaN             NaN             NaN
             NaN             NaN             NaN
             NaN             NaN             NaN
             NaN             NaN             NaN
             NaN             NaN             NaN
             NaN             NaN             NaN
             NaN             NaN             NaN
             NaN             NaN             NaN
             NaN             NaN             NaN
             NaN             NaN             NaN
             NaN             NaN             NaN
             NaN             NaN             NaN
             NaN             NaN             NaN
             NaN             NaN             NaN
             NaN             NaN             NaN
             NaN             NaN             NaN
             NaN             NaN             NaN
             NaN             NaN             NaN
             NaN             NaN             NaN
             NaN             NaN             NaN
             NaN             NaN             NaN
             NaN             NaN             NaN
             NaN             NaN             NaN
             NaN             NaN             NaN
             NaN             NaN             NaN
             NaN             NaN             NaN
             NaN             NaN             NaN
             NaN             NaN             NaN
             NaN             NaN             NaN
             NaN             NaN             NaN
             NaN             NaN             NaN
             NaN             NaN             NaN
             NaN             NaN             NaN
             NaN             NaN             NaN
             NaN             NaN             NaN
             NaN             NaN             NaN
             NaN             NaN             NaN
             NaN             NaN             NaN
             NaN             NaN             NaN
             NaN             NaN             NaN
             NaN             NaN             NaN
             NaN             NaN             NaN
             NaN             NaN             NaN
             NaN             NaN             NaN
             NaN             NaN             NaN
             NaN             NaN             NaN
             NaN             NaN             NaN
             NaN             NaN             NaN
             NaN             NaN             NaN
             NaN             NaN             NaN
             NaN             NaN             NaN
             NaN             NaN             NaN
             NaN             NaN             NaN
             NaN             NaN             NaN
             NaN             NaN             NaN
             NaN             NaN             NaN
             NaN             NaN             NaN
             NaN             NaN             NaN
             NaN             NaN             NaN
             NaN             NaN             NaN
             NaN             NaN             NaN
             NaN             NaN             NaN
             NaN             NaN             NaN
             NaN             NaN             NaN
             NaN             NaN             NaN
             NaN             NaN             NaN
             NaN             NaN             NaN
             NaN             NaN             NaN
             NaN             NaN             NaN
             NaN             NaN             NaN
             NaN             NaN             NaN
             NaN             NaN             NaN
             NaN             NaN             NaN
             NaN             NaN             NaN
             NaN             NaN             NaN
             NaN             NaN             NaN
             NaN             NaN             NaN
             NaN             NaN             NaN
             NaN             NaN             NaN
             NaN             NaN             NaN
             NaN             NaN             NaN
             NaN             NaN             NaN
             NaN             NaN             NaN
             NaN             NaN             NaN
             NaN             NaN             NaN
