# Compound: Fe24Li31O16S24. Old comment: Li4Fe3S3O2 Enum Minimum PATH2 INIT FRAME 01
  1.0000000000
  7.8866538400  -7.9475567000   0.0601846200
  7.3433505600   7.9467915400  -2.8792872600
 -0.0478291200  -0.1071026000  10.5527142700
Fe    Li    O     S
   24    31    16    24
Direct
  0.2628219000   0.6631261583   0.6020937900
  0.2354174583   0.3349230317   0.3989965050
  0.1226752817   0.3258395800   0.8024725083
  0.3838636383   0.5827738333   0.8150904517
  0.8752059283   0.1743552067   0.1970925050
  0.1248928267   0.4210682300   0.1853380550
  0.0148392583  -0.0844671983   0.6016059550
 -0.0152138950   0.5848521250   0.3991511800
  0.8665099000   0.5713807783   0.8027279217
  0.1266154500   0.8296199900   0.8151977517
  0.6269308750   0.4262159267   0.1976123817
  0.8730631750   0.6694364067   0.1858660433
  0.7632104683   0.1639420883   0.6026050050
  0.7349777467   0.8344096233   0.3987347783
  0.6224389700   0.8175889400   0.8026979217
  0.8762855100   0.0820595583   0.8153173150
  0.3764105183   0.6756856833   0.1968803300
  0.6236550717  -0.0797273733   0.1860111717
  0.5190794267   0.4200431767   0.6036524350
  0.4841345700   0.0844882800   0.3997230617
  0.3755159483   0.0750586900   0.8023850867
  0.6306600683   0.3379854817   0.8151379700
  0.1250195400  -0.0756646217   0.1970548483
  0.3749738850   0.1713784550   0.1852853500
  0.4801593317   0.4792057167  -0.0008386917
  0.0215012267   0.5233746050  -0.0037894217
 -0.0227056700   0.3808934333   0.6084368233
  0.0213653700   0.1202991900   0.3928459417
  0.8352031650   0.3788604183   0.8470045217
  0.1227817933   0.5678404467   0.7762337050
  0.1240315783   0.1625919000   0.1549890833
  0.3778310417   0.4332265333   0.2241667700
  0.2260700883   0.7246461267   0.0035032500
  0.7666509683   0.7641053133  -0.0079103883
  0.7211911117   0.6237578350   0.6115697383
  0.7735472167   0.3710016100   0.3922632850
  0.8740842183   0.8164957983   0.7705727917
  0.8747641300   0.4114089667   0.1536499983
  0.1265774017   0.6828274750   0.2254589150
 -0.0264017283  -0.0250940000   0.0028917833
  0.5262805367   0.0227830717  -0.0029805350
  0.4797258400   0.8801043367   0.6079934267
  0.5227979583   0.6213718533   0.3918033033
  0.3754094983   0.8388579267   0.8467268100
  0.6236437700   0.0663593883   0.7756759367
  0.6234491000   0.6615569717   0.1499325217
  0.8756969533  -0.0687007433   0.2227381450
  0.7246392767   0.2279353050   0.0030733817
  0.2762124850   0.2756708083  -0.0043934900
  0.2265434033   0.1289662383   0.6072149050
  0.2726528967   0.8701350133   0.3934231700
  0.1268648700   0.0877453433   0.8451364817
  0.3726972650   0.3150920717   0.7678877000
  0.3733595800  -0.0866799933   0.1548904883
  0.6264602233   0.1838991317   0.2270817650
 -0.0017189017   0.4529857983   0.8063547817
  0.2515189000   0.7019581867   0.8098046417
  0.0003762300   0.0487350117   0.1938620717
  0.2504915367   0.2982273567   0.1919479583
  0.7536439083   0.7034521000   0.8020247933
  0.0000621550  -0.0473692650   0.8087170750
  0.7506754417   0.2991118150   0.1946710100
 -0.0000866900   0.5479725367   0.1926896267
  0.5006671900  -0.0505841083   0.8070780467
  0.7484504700   0.2027284000   0.8091661383
  0.5013850183   0.5494795483   0.1926965433
  0.7488633400   0.7965076550   0.1913791150
  0.2495350317   0.2016490733   0.8054933750
  0.4958435950   0.4465526317   0.8046715450
  0.2503888467   0.7993196133   0.1946097500
  0.4999513167   0.0487668717   0.1932420267
  0.0010913450   0.2496598817   0.0004412167
  0.2491700450   0.5006403000   0.0017924433
  0.0051153533   0.3464617650   0.3667037817
  0.2459317600   0.5870852333   0.3660510217
 -0.0047209800   0.1533859167   0.6332480950
  0.2522840300   0.4152470683   0.6326661667
  0.7517798700   0.4994869933   0.0031235967
  0.0008652700   0.7512131883   0.0024330150
  0.7551496067   0.5971590467   0.3700280517
 -0.0054401800   0.8367398117   0.3667346267
  0.7463199683   0.4011576067   0.6300378517
  0.0085125383   0.6640504217   0.6327955283
  0.4983986067   0.7529709967   0.0024624950
  0.7503732117   0.0009673083   0.0023616217
  0.5047118417   0.8467562050   0.3675018333
  0.7453440050   0.0858767817   0.3665587567
  0.4935716150   0.6543347467   0.6305567700
  0.7555793783  -0.0842420417   0.6328583333
  0.2500440300   0.0007028483   0.0000762767
  0.4997134517   0.2495890717   0.0022376367
  0.2545149683   0.0966491950   0.3668583117
  0.4951364917   0.3381484933   0.3683303533
  0.2451084667  -0.0961832400   0.6338460933
  0.5062248733   0.1602327917   0.6329651550
