# Compound: Fe32Li31O16S32. Old comment:
   1.0000000000000000     
     7.6911861600000000   -7.6885056399999998    0.0000000100000000
     7.6884112800000004    7.6911136200000003   -0.0126780500000000
    -3.8335882400000001   -3.8349345399999999   12.8627506399999998
   Fe   Li   O    S 
    32    31    16    32
Direct
  0.9738865520717586  0.0801300837852811  0.1594223896995286
  0.2230312871320671  0.3294110379819928  0.1591862681599781
  0.7230084734243550  0.3278468548752864  0.1585865124895091
  0.9745136334263733  0.5794507417381235  0.1581206332272978
  0.9641809127128779  0.4308223888519085  0.3467353261641371
  0.2249437751053413  0.6695903766640445  0.3413800462477520
  0.7317551321182105  0.6634729522434867  0.3467015639235564
  0.9727399790673320  0.9216284758978349  0.3412256386480113
  0.9727168505766903  0.0804247974349718  0.6587752814862367
  0.2234135136179767  0.3295920701183009  0.6588404008086557
  0.7243729523526776  0.3280721674157423  0.6589707190427750
  0.9641814388320012  0.5840408641722438  0.6532564724438286
  0.9738717352219251  0.4206511795590790  0.8405690945294430
  0.2230637778615736  0.6702222803708363  0.8408083683749739
  0.7229822429936620  0.6692621722460441  0.8414023196447735
  0.9744854545237642  0.9213133340662745  0.8418905460929476
  0.4746712180762343  0.5798853425210609  0.1594176538659137
  0.7238949694018170  0.8288289637853871  0.1590254530290544
  0.2238554881613266  0.8292085349428007  0.1586261962190255
  0.4740884903924079  0.0789568490302665  0.1584814473541406
  0.4744535785048694  0.9200623997571077  0.3411547251119770
  0.7243754150491469  0.1690995524249455  0.3410456226574014
  0.2234156853392828  0.1707719644010510  0.3411630899071192
  0.4729065945798956  0.4206594620128391  0.3411623825847563
  0.4729262669638091  0.5795571286871968  0.6588519573931686
  0.7317038346404802  0.8168494476396402  0.6533020183067478
  0.2249789737181829  0.8282698051102554  0.6586293435137168
  0.4744496012698030  0.0789063904575453  0.6588642214757290
  0.4746780483488258  0.9204552593892064  0.8405545928363964
  0.7238922881936790  0.1697905905728027  0.8409719568317916
  0.2238784048471764  0.1705744430498420  0.8413730728631571
  0.4741003549453490  0.4204372870362650  0.8415157896792977
  0.0808362410724697  0.1434641158163193  0.0006419609848729
  0.8676155479661974  0.8561280561392121  0.9996260881553838
  0.8676200657077576  0.3565039969719909  0.0003694970247350
  0.0808336201382815  0.6428042356499293  0.9993639865085672
  0.1198475669428384  0.3942282594703751  0.4999938809393843
  0.3319932457000832  0.6074054503848553  0.5000017794979995
  0.5896309172386857  0.6388262366124905  0.5000066498690329
  0.6185490461980476  0.3941993249715188  0.5000094623381244
  0.0802672525670618  0.1430961902664237  0.4999993477087671
  0.8708900277367038  0.8493553192396530  0.4999898068630671
  0.8629576095752453  0.3651168643467768  0.5000027381630089
  0.0731635268158264  0.6468117025475694  0.4999979166975480
  0.1172637693073849  0.3932613907857951  0.9995729479431852
  0.3312858705564277  0.6072037379879225  0.0000140891201520
  0.8304932096263713  0.6065062316556485  0.0006074308814262
  0.6175714836228502  0.3933983749103759  0.0005921303318888
  0.5805213463936870  0.6433715340626855  0.0000203220471607
  0.3668479441465921  0.3574468653872896  0.0005347893080840
  0.3668547933400800  0.8569104096039221  0.9994548741577418
  0.5805233641798123  0.1433490661729205  0.9999735301779724
  0.6185246881428623  0.8959209348126564  0.4999951446993387
  0.8313773565969846  0.1077968176506752  0.5000027915032357
  0.3307148374147439  0.1065802869161918  0.4999928519157048
  0.1181173139980940  0.8942899704147208  0.5000066562815059
  0.3681338397622259  0.3563737564740468  0.5000013434743673
  0.3672603176274797  0.8564114476810981  0.5000078845712809
  0.5806314385296304  0.1441344283831973  0.5000040529400034
  0.6175612869414481  0.8928070015058492  0.9994050974238015
  0.8304816885824096  0.1059050944510384  0.9993829585578883
  0.3312907086216480  0.1071916124150746  0.9999775612249655
  0.1172662119688139  0.8936924112790625  0.0004333585812662
  0.2242518228550437  0.2495571402548488  0.5000031853012628
  0.4744539474758758  0.5001255892553397  0.0004758433281080
  0.9738109835288672  0.4999501197429769  0.9996635362151364
  0.2223555362827184  0.7493688056322735  0.5000029464497089
  0.2236126197805364  0.2502372340695980  0.0004163624440507
  0.4757279036085211  0.4997493827643102  0.5000098780586468
  0.9804931528366467  0.4969003685497686  0.4999979573231498
  0.2236176251860215  0.7498291046506030  0.9995879271104894
  0.7211374683741756  0.7566051930776049  0.4999997862705305
  0.9738085761659887  0.0003210145226741  0.0003375879618878
  0.4744574976641265  0.9996579387046615  0.9994948576969219
  0.7239566748935460  0.2514936985384607  0.5000072273702821
  0.7243412322944932  0.7497263326280791  0.0000799051072235
  0.9733198122588305  0.9983927630530925  0.5000041411691075
  0.4738205144278682  0.0002645122831023  0.5000107989499356
  0.7243431491978516  0.2496292878955048  0.9999018829205227
  0.9741805900211914  0.3279820343619989  0.1552458077676658
  0.2239551767367998  0.5759425992733828  0.1516288777302010
  0.7242868261154597  0.5776264399987678  0.1551569496282701
  0.9741418981341400  0.8255870831127067  0.1511505832684313
  0.9735771282980955  0.1717889547472207  0.3479613458910252
  0.2283811305177501  0.4227054752915838  0.3474240601469343
  0.7232782445592605  0.4224028772888745  0.3465612074062427
  0.9761245905246967  0.6752801751073593  0.3463078915052676
  0.9735688793218443  0.3238217073251808  0.6520508440112645
  0.2284051702095893  0.5752700966402885  0.6525602506764523
  0.7232524809384734  0.5758587312892917  0.6534477904512468
  0.9761153845542589  0.8289865246846173  0.6536778507808366
  0.9741337387604825  0.1744772230767888  0.8488550966114536
  0.2241812792570005  0.4238805308454484  0.8485521961011456
  0.7238644721922586  0.4245799082003786  0.8491304843944606
  0.9741543970924744  0.6727069656736260  0.8447567229213770
  0.4736920587258767  0.8257022233015086  0.1513495028313329
  0.7238461311822253  0.0754633094537970  0.1508592872646367
  0.2241990188493647  0.0753557320853929  0.1514430293213498
  0.4742904342369361  0.3253048170187047  0.1514243603113272
  0.4718542046153650  0.6734733552485046  0.3480105406430786
  0.7231681546214214  0.9278965133576103  0.3472328320084354
  0.2240589121755600  0.9239974561059059  0.3478569783301084
  0.4737560770036864  0.1734298618863254  0.3475743845399791
  0.4718548318523654  0.8254896275531555  0.6520288936870053
  0.7231539996673323  0.0806628958111164  0.6527904930922267
  0.2240762393637211  0.0761465651678510  0.6521522802965926
  0.4737637734712572  0.3258437274948941  0.6524219601418930
  0.4743082833034029  0.6739179104071625  0.8485556042153215
  0.7242289050792280  0.9224873060109062  0.8448340127780800
  0.2240210069852590  0.9243527122030161  0.8483742632489463
  0.4736996843124791  0.1742994211467847  0.8486382098161782

  0.00000000E+00  0.00000000E+00  0.00000000E+00
  0.00000000E+00  0.00000000E+00  0.00000000E+00
  0.00000000E+00  0.00000000E+00  0.00000000E+00
  0.00000000E+00  0.00000000E+00  0.00000000E+00
  0.00000000E+00  0.00000000E+00  0.00000000E+00
  0.00000000E+00  0.00000000E+00  0.00000000E+00
  0.00000000E+00  0.00000000E+00  0.00000000E+00
  0.00000000E+00  0.00000000E+00  0.00000000E+00
  0.00000000E+00  0.00000000E+00  0.00000000E+00
  0.00000000E+00  0.00000000E+00  0.00000000E+00
  0.00000000E+00  0.00000000E+00  0.00000000E+00
  0.00000000E+00  0.00000000E+00  0.00000000E+00
  0.00000000E+00  0.00000000E+00  0.00000000E+00
  0.00000000E+00  0.00000000E+00  0.00000000E+00
  0.00000000E+00  0.00000000E+00  0.00000000E+00
  0.00000000E+00  0.00000000E+00  0.00000000E+00
  0.00000000E+00  0.00000000E+00  0.00000000E+00
  0.00000000E+00  0.00000000E+00  0.00000000E+00
  0.00000000E+00  0.00000000E+00  0.00000000E+00
  0.00000000E+00  0.00000000E+00  0.00000000E+00
  0.00000000E+00  0.00000000E+00  0.00000000E+00
  0.00000000E+00  0.00000000E+00  0.00000000E+00
  0.00000000E+00  0.00000000E+00  0.00000000E+00
  0.00000000E+00  0.00000000E+00  0.00000000E+00
  0.00000000E+00  0.00000000E+00  0.00000000E+00
  0.00000000E+00  0.00000000E+00  0.00000000E+00
  0.00000000E+00  0.00000000E+00  0.00000000E+00
  0.00000000E+00  0.00000000E+00  0.00000000E+00
  0.00000000E+00  0.00000000E+00  0.00000000E+00
  0.00000000E+00  0.00000000E+00  0.00000000E+00
  0.00000000E+00  0.00000000E+00  0.00000000E+00
  0.00000000E+00  0.00000000E+00  0.00000000E+00
  0.00000000E+00  0.00000000E+00  0.00000000E+00
  0.00000000E+00  0.00000000E+00  0.00000000E+00
  0.00000000E+00  0.00000000E+00  0.00000000E+00
  0.00000000E+00  0.00000000E+00  0.00000000E+00
  0.00000000E+00  0.00000000E+00  0.00000000E+00
  0.00000000E+00  0.00000000E+00  0.00000000E+00
  0.00000000E+00  0.00000000E+00  0.00000000E+00
  0.00000000E+00  0.00000000E+00  0.00000000E+00
  0.00000000E+00  0.00000000E+00  0.00000000E+00
  0.00000000E+00  0.00000000E+00  0.00000000E+00
  0.00000000E+00  0.00000000E+00  0.00000000E+00
  0.00000000E+00  0.00000000E+00  0.00000000E+00
  0.00000000E+00  0.00000000E+00  0.00000000E+00
  0.00000000E+00  0.00000000E+00  0.00000000E+00
  0.00000000E+00  0.00000000E+00  0.00000000E+00
  0.00000000E+00  0.00000000E+00  0.00000000E+00
  0.00000000E+00  0.00000000E+00  0.00000000E+00
  0.00000000E+00  0.00000000E+00  0.00000000E+00
  0.00000000E+00  0.00000000E+00  0.00000000E+00
  0.00000000E+00  0.00000000E+00  0.00000000E+00
  0.00000000E+00  0.00000000E+00  0.00000000E+00
  0.00000000E+00  0.00000000E+00  0.00000000E+00
  0.00000000E+00  0.00000000E+00  0.00000000E+00
  0.00000000E+00  0.00000000E+00  0.00000000E+00
  0.00000000E+00  0.00000000E+00  0.00000000E+00
  0.00000000E+00  0.00000000E+00  0.00000000E+00
  0.00000000E+00  0.00000000E+00  0.00000000E+00
  0.00000000E+00  0.00000000E+00  0.00000000E+00
  0.00000000E+00  0.00000000E+00  0.00000000E+00
  0.00000000E+00  0.00000000E+00  0.00000000E+00
  0.00000000E+00  0.00000000E+00  0.00000000E+00
  0.00000000E+00  0.00000000E+00  0.00000000E+00
  0.00000000E+00  0.00000000E+00  0.00000000E+00
  0.00000000E+00  0.00000000E+00  0.00000000E+00
  0.00000000E+00  0.00000000E+00  0.00000000E+00
  0.00000000E+00  0.00000000E+00  0.00000000E+00
  0.00000000E+00  0.00000000E+00  0.00000000E+00
  0.00000000E+00  0.00000000E+00  0.00000000E+00
  0.00000000E+00  0.00000000E+00  0.00000000E+00
  0.00000000E+00  0.00000000E+00  0.00000000E+00
  0.00000000E+00  0.00000000E+00  0.00000000E+00
  0.00000000E+00  0.00000000E+00  0.00000000E+00
  0.00000000E+00  0.00000000E+00  0.00000000E+00
  0.00000000E+00  0.00000000E+00  0.00000000E+00
  0.00000000E+00  0.00000000E+00  0.00000000E+00
  0.00000000E+00  0.00000000E+00  0.00000000E+00
  0.00000000E+00  0.00000000E+00  0.00000000E+00
  0.00000000E+00  0.00000000E+00  0.00000000E+00
  0.00000000E+00  0.00000000E+00  0.00000000E+00
  0.00000000E+00  0.00000000E+00  0.00000000E+00
  0.00000000E+00  0.00000000E+00  0.00000000E+00
  0.00000000E+00  0.00000000E+00  0.00000000E+00
  0.00000000E+00  0.00000000E+00  0.00000000E+00
  0.00000000E+00  0.00000000E+00  0.00000000E+00
  0.00000000E+00  0.00000000E+00  0.00000000E+00
  0.00000000E+00  0.00000000E+00  0.00000000E+00
  0.00000000E+00  0.00000000E+00  0.00000000E+00
  0.00000000E+00  0.00000000E+00  0.00000000E+00
  0.00000000E+00  0.00000000E+00  0.00000000E+00
  0.00000000E+00  0.00000000E+00  0.00000000E+00
  0.00000000E+00  0.00000000E+00  0.00000000E+00
  0.00000000E+00  0.00000000E+00  0.00000000E+00
  0.00000000E+00  0.00000000E+00  0.00000000E+00
  0.00000000E+00  0.00000000E+00  0.00000000E+00
  0.00000000E+00  0.00000000E+00  0.00000000E+00
  0.00000000E+00  0.00000000E+00  0.00000000E+00
  0.00000000E+00  0.00000000E+00  0.00000000E+00
  0.00000000E+00  0.00000000E+00  0.00000000E+00
  0.00000000E+00  0.00000000E+00  0.00000000E+00
  0.00000000E+00  0.00000000E+00  0.00000000E+00
  0.00000000E+00  0.00000000E+00  0.00000000E+00
  0.00000000E+00  0.00000000E+00  0.00000000E+00
  0.00000000E+00  0.00000000E+00  0.00000000E+00
  0.00000000E+00  0.00000000E+00  0.00000000E+00
  0.00000000E+00  0.00000000E+00  0.00000000E+00
  0.00000000E+00  0.00000000E+00  0.00000000E+00
  0.00000000E+00  0.00000000E+00  0.00000000E+00
  0.00000000E+00  0.00000000E+00  0.00000000E+00
  0.00000000E+00  0.00000000E+00  0.00000000E+00
