# Compound: Fe32Li31O16S32. Old comment: Fe32Li31O16S32
  1.0000000000
  7.6911861600  -7.6885056400   0.0000000100
  7.6884112800   7.6911136200  -0.0126780500
 -3.8335882400  -3.8349345400  12.8627506400
Fe    Li    O     S
   32    31    16    32
Direct
  0.9738907400   0.0800454300   0.1593664600
  0.2230871300   0.3294544200   0.1592170900
  0.7230023900   0.3278540400   0.1585758800
  0.9745120400   0.5794650000   0.1581172500
  0.9642690500   0.4307782200   0.3467776600
  0.2249617700   0.6695981300   0.3413494200
  0.7316769500   0.6635814700   0.3467506600
  0.9727576400   0.9215719700   0.3411178700
  0.9727471400   0.0804477500   0.6588743200
  0.2234517300   0.3295767900   0.6588421300
  0.7243871800   0.3281387700   0.6590763900
  0.9642810700   0.5839767100   0.6532374100
  0.9738844800   0.4206649200   0.8406343900
  0.2230901500   0.6702333200   0.8407839900
  0.7230015700   0.6692760700   0.8414256700
  0.9745008400   0.9213122600   0.8418800900
  0.4746061500   0.5799035900   0.1594373700
  0.7239157600   0.8288687200   0.1589938000
  0.2238679300   0.8292092500   0.1586409200
  0.4741064600   0.0789662900   0.1585084000
  0.4744149900   0.9200743100   0.3411388900
  0.7243955900   0.1690383800   0.3409246200
  0.2234464500   0.1707296500   0.3411549200
  0.4729057500   0.4206939400   0.3411511000
  0.4729119200   0.5795675100   0.6588515900
  0.7316670100   0.8168969900   0.6532652500
  0.2249426100   0.8282705900   0.6586564300
  0.4744079600   0.0789590200   0.6588558900
  0.4746039700   0.9204482600   0.8405631500
  0.7239272700   0.1698680500   0.8410073800
  0.2238708400   0.1705554000   0.8413604700
  0.4741119900   0.4204418400   0.8414939000
  0.0808310700   0.1434159700   0.0006094500
  0.8676094900   0.8561644100  -0.0003494100
  0.8676092600   0.3565163700   0.0003487900
  0.0808336000   0.6428004500  -0.0006144700
  0.1197749000   0.3942706000   0.4999967000
  0.3319599000   0.6073849300   0.5000018800
  0.5895491200   0.6388800500   0.5000028100
  0.6185420000   0.3942506700   0.5000100500
  0.0803146500   0.1430694300   0.4999989000
  0.8708337500   0.8493656900   0.4999902600
  0.8630347600   0.3650699000   0.5000030300
  0.0732120100   0.6467746500   0.5000062400
  0.1172490900   0.3932846800  -0.0004237600
  0.3312768500   0.6071981500   0.0000183000
  0.8305129500   0.6065248400   0.0005948800
  0.6175830900   0.3933620100   0.0005688900
  0.5805343100   0.6433815400   0.0000017600
  0.3668531500   0.3574336200   0.0005187900
  0.3668525200   0.8569100100  -0.0005200200
  0.5805392200   0.1433795300  -0.0000005400
  0.6185556000   0.8958387600   0.4999912100
  0.8313463300   0.1077666300   0.4999978400
  0.3307250200   0.1065851600   0.4999905900
  0.1181074700   0.8942300600   0.5000061900
  0.3681523600   0.3563754600   0.5000027000
  0.3672174300   0.8564290300   0.4999976500
  0.5806044900   0.1441354400   0.5000028900
  0.6175798900   0.8927921500  -0.0005622500
  0.8305094900   0.1059220100  -0.0006020800
  0.3312775200   0.1071801600  -0.0000199500
  0.1172477000   0.8937113600   0.0004271900
  0.2242158000   0.2495496200   0.5000029600
  0.4744352400   0.5001445100   0.0004998300
  0.9738458300   0.4999699300  -0.0003583000
  0.2223173700   0.7494066700   0.5000041500
  0.2236314600   0.2502443200   0.0004272700
  0.4757519600   0.4997464800   0.5000039700
  0.9804267200   0.4968541600   0.4999891000
  0.2236329400   0.7498149700  -0.0004325400
  0.7211320600   0.7565821400   0.4999695900
  0.9738486000   0.0003291200   0.0003596300
  0.4744315900  -0.0003595600  -0.0005040000
  0.7239829800   0.2514754600   0.5000023200
  0.7243232700   0.7497358700   0.0001146100
  0.9732963700  -0.0016162800   0.4999994300
  0.4738488600   0.0002589300   0.5000006700
  0.7243259700   0.2496319700  -0.0001071600
  0.9741714500   0.3279404300   0.1551943200
  0.2239799800   0.5759587300   0.1516277000
  0.7242619700   0.5776036000   0.1551082000
  0.9741502400   0.8256258400   0.1511781100
  0.9735532800   0.1717123300   0.3479464300
  0.2284161700   0.4226596600   0.3473513300
  0.7232679100   0.4223783200   0.3465398500
  0.9761175800   0.6752875900   0.3462908100
  0.9735534900   0.3237677600   0.6520523500
  0.2284146300   0.5753084500   0.6526495900
  0.7232706800   0.5758465300   0.6534675800
  0.9761218100   0.8290011900   0.6537118600
  0.9741513200   0.1744509500   0.8488201100
  0.2241912100   0.4239183100   0.8485872500
  0.7238715100   0.4245816400   0.8491019300
  0.9741716600   0.6727466500   0.8448082400
  0.4737025500   0.8256654800   0.1513339500
  0.7238713600   0.0754736800   0.1508994000
  0.2241907900   0.0753253900   0.1514127800
  0.4742900200   0.3253255300   0.1514149700
  0.4717911600   0.6734435400   0.3479293100
  0.7231465900   0.9279466900   0.3472251300
  0.2240411600   0.9239256500   0.3478042200
  0.4738178400   0.1734216300   0.3475242800
  0.4717863000   0.8255128800   0.6520727300
  0.7231468400   0.0807180200   0.6527735800
  0.2240416700   0.0761176400   0.6521925300
  0.4738199600   0.3258916500   0.6524725600
  0.4742892200   0.6739152000   0.8485886700
  0.7242643400   0.9224891500   0.8448861900
  0.2239802700   0.9243328000   0.8483756700
  0.4736991900   0.1743335700   0.8486640200
