# Compound: Li64O32S64Fe64. Old comment:
   1.00000000000000     
    15.3795974399999995    0.0026079800000000   -0.0126780400000000
    -0.0027748800000000   15.3796192600000001   -0.0126780600000000
    -3.8335882400000001   -3.8349345399999999   12.8627506399999998
   Li   O    S    Fe
    64    32    64    64
Direct
  0.1120524199999977  0.0312091249999966  0.0000025200000024
  0.6120524199999977  0.0312091249999966  0.0000025200000024
  0.1120524199999977  0.5312091249999966  0.0000025200000024
  0.6120524199999977  0.5312091249999966  0.0000025200000024
  0.1120524199999977  0.0312091249999966  0.5000025200000024
  0.6120524199999977  0.0312091249999966  0.5000025200000024
  0.1120524199999977  0.5312091249999966  0.5000025200000024
  0.6120524199999977  0.5312091249999966  0.5000025200000024
  0.3620552049999972  0.4946858650000010  0.0000117550000027
  0.8620552049999972  0.4946858650000010  0.0000117550000027
  0.3620552049999972  0.9946858650000010  0.0000117550000027
  0.8620552049999972  0.9946858650000010  0.0000117550000027
  0.3620552049999972  0.4946858650000010  0.5000117550000027
  0.8620552049999972  0.4946858650000010  0.5000117550000027
  0.3620552049999972  0.9946858650000010  0.5000117550000027
  0.8620552049999972  0.9946858650000010  0.5000117550000027
  0.1120552049999972  0.2446858650000010  0.0000117550000027
  0.6120552049999972  0.2446858650000010  0.0000117550000027
  0.1120552049999972  0.7446858650000010  0.0000117550000027
  0.6120552049999972  0.7446858650000010  0.0000117550000027
  0.1120552049999972  0.2446858650000010  0.5000117550000027
  0.6120552049999972  0.2446858650000010  0.5000117550000027
  0.1120552049999972  0.7446858650000010  0.5000117550000027
  0.6120552049999972  0.7446858650000010  0.5000117550000027
  0.3620524199999977  0.2812091249999966  0.0000025200000024
  0.8620524199999977  0.2812091249999966  0.0000025200000024
  0.3620524199999977  0.7812091249999966  0.0000025200000024
  0.8620524199999977  0.7812091249999966  0.0000025200000024
  0.3620524199999977  0.2812091249999966  0.5000025200000024
  0.8620524199999977  0.2812091249999966  0.5000025200000024
  0.3620524199999977  0.7812091249999966  0.5000025200000024
  0.8620524199999977  0.7812091249999966  0.5000025200000024
  0.2553141400000030  0.1379447950000028  0.4999882449999973
  0.7553141400000030  0.1379447950000028  0.4999882449999973
  0.2553141400000030  0.6379447950000028  0.4999882449999973
  0.7553141400000030  0.6379447950000028  0.4999882449999973
  0.2553141400000030  0.1379447950000028  0.9999882449999973
  0.7553141400000030  0.1379447950000028  0.9999882449999973
  0.2553141400000030  0.6379447950000028  0.9999882449999973
  0.7553141400000030  0.6379447950000028  0.9999882449999973
  0.4687908699999994  0.1379475800000023  0.4999974799999976
  0.9687908699999994  0.1379475800000023  0.4999974799999976
  0.4687908699999994  0.6379475800000023  0.4999974799999976
  0.9687908699999994  0.6379475800000023  0.4999974799999976
  0.4687908699999994  0.1379475800000023  0.9999974799999976
  0.9687908699999994  0.1379475800000023  0.9999974799999976
  0.4687908699999994  0.6379475800000023  0.9999974799999976
  0.9687908699999994  0.6379475800000023  0.9999974799999976
  0.2187908699999994  0.3879475800000023  0.4999974799999976
  0.7187908699999994  0.3879475800000023  0.4999974799999976
  0.2187908699999994  0.8879475800000023  0.4999974799999976
  0.7187908699999994  0.8879475800000023  0.4999974799999976
  0.2187908699999994  0.3879475800000023  0.9999974799999976
  0.7187908699999994  0.3879475800000023  0.9999974799999976
  0.2187908699999994  0.8879475800000023  0.9999974799999976
  0.7187908699999994  0.8879475800000023  0.9999974799999976
  0.0053141400000030  0.3879447950000028  0.4999882449999973
  0.5053141400000030  0.3879447950000028  0.4999882449999973
  0.0053141400000030  0.8879447950000028  0.4999882449999973
  0.5053141400000030  0.8879447950000028  0.4999882449999973
  0.0053141400000030  0.3879447950000028  0.9999882449999973
  0.5053141400000030  0.3879447950000028  0.9999882449999973
  0.0053141400000030  0.8879447950000028  0.9999882449999973
  0.5053141400000030  0.8879447950000028  0.9999882449999973
  0.2370508750000013  0.0129482350000032  0.4999989650000032
  0.7370508750000013  0.0129482350000032  0.4999989650000032
  0.2370508750000013  0.5129482350000032  0.4999989650000032
  0.7370508750000013  0.5129482350000032  0.4999989650000032
  0.2370508750000013  0.0129482350000032  0.9999989650000032
  0.7370508750000013  0.0129482350000032  0.9999989650000032
  0.2370508750000013  0.5129482350000032  0.9999989650000032
  0.7370508750000013  0.5129482350000032  0.9999989650000032
  0.4870520200000001  0.0129493749999980  0.0000010349999968
  0.9870520200000001  0.0129493749999980  0.0000010349999968
  0.4870520200000001  0.5129493749999980  0.0000010349999968
  0.9870520200000001  0.5129493749999980  0.0000010349999968
  0.4870520200000001  0.0129493749999980  0.5000010349999968
  0.9870520200000001  0.0129493749999980  0.5000010349999968
  0.4870520200000001  0.5129493749999980  0.5000010349999968
  0.9870520200000001  0.5129493749999980  0.5000010349999968
  0.2370520200000001  0.2629493749999980  0.0000010349999968
  0.7370520200000001  0.2629493749999980  0.0000010349999968
  0.2370520200000001  0.7629493749999980  0.0000010349999968
  0.7370520200000001  0.7629493749999980  0.0000010349999968
  0.2370520200000001  0.2629493749999980  0.5000010349999968
  0.7370520200000001  0.2629493749999980  0.5000010349999968
  0.2370520200000001  0.7629493749999980  0.5000010349999968
  0.7370520200000001  0.7629493749999980  0.5000010349999968
  0.4870508750000013  0.2629482350000032  0.4999989650000032
  0.9870508750000013  0.2629482350000032  0.4999989650000032
  0.4870508750000013  0.7629482350000032  0.4999989650000032
  0.9870508750000013  0.7629482350000032  0.4999989650000032
  0.4870508750000013  0.2629482350000032  0.9999989650000032
  0.9870508750000013  0.2629482350000032  0.9999989650000032
  0.4870508750000013  0.7629482350000032  0.9999989650000032
  0.9870508750000013  0.7629482350000032  0.9999989650000032
  0.1499079749999979  0.1758113300000019  0.1514402500000003
  0.6499079749999979  0.1758113300000019  0.1514402500000003
  0.1499079749999979  0.6758113300000019  0.1514402500000003
  0.6499079749999979  0.6758113300000019  0.1514402500000003
  0.1499079749999979  0.1758113300000019  0.6514402500000003
  0.6499079749999979  0.1758113300000019  0.6514402500000003
  0.1499079749999979  0.6758113300000019  0.6514402500000003
  0.6499079749999979  0.6758113300000019  0.6514402500000003
  0.3999078599999990  0.1764610509000022  0.1514368149999967
  0.8999078599999990  0.1758108399999969  0.1514368149999967
  0.3999078599999990  0.6758108399999969  0.1514368149999967
  0.8999078599999990  0.6758108399999969  0.1514368149999967
  0.3999078599999990  0.1758108399999969  0.6514368149999967
  0.8999078599999990  0.1758108399999969  0.6514368149999967
  0.3999078599999990  0.6758108399999969  0.6514368149999967
  0.8999078599999990  0.6758108399999969  0.6514368149999967
  0.1499078599999990  0.4258108399999969  0.1514368149999967
  0.6499078599999990  0.4258108399999969  0.1514368149999967
  0.1499078599999990  0.9258108399999969  0.1514368149999967
  0.6499078599999990  0.9258108399999969  0.1514368149999967
  0.1499078599999990  0.4258108399999969  0.6514368149999967
  0.6499078599999990  0.4258108399999969  0.6514368149999967
  0.1499078599999990  0.9258108399999969  0.6514368149999967
  0.6499078599999990  0.9258108399999969  0.6514368149999967
  0.3999079749999979  0.4258113300000019  0.1514402500000003
  0.8999079749999979  0.4258113300000019  0.1514402500000003
  0.3999079749999979  0.9258113300000019  0.1514402500000003
  0.8999079749999979  0.9258113300000019  0.1514402500000003
  0.3999079749999979  0.4258113300000019  0.6514402500000003
  0.8999079749999979  0.4258113300000019  0.6514402500000003
  0.3999079749999979  0.9258113300000019  0.6514402500000003
  0.8999079749999979  0.9258113300000019  0.6514402500000003
  0.0741891600000031  0.1000921400000010  0.3485631850000033
  0.5741891600000031  0.1000921400000010  0.3485631850000033
  0.0741891600000031  0.6000921400000010  0.3485631850000033
  0.5741891600000031  0.6000921400000010  0.3485631850000033
  0.0741891600000031  0.1000921400000010  0.8485631850000033
  0.5741891600000031  0.1000921400000010  0.8485631850000033
  0.0741891600000031  0.6000921400000010  0.8485631850000033
  0.5741891600000031  0.6000921400000010  0.8485631850000033
  0.3241886699999981  0.1000920250000021  0.3485597499999997
  0.8241886699999981  0.1000920250000021  0.3485597499999997
  0.3241886699999981  0.6000920250000021  0.3485597499999997
  0.8241886699999981  0.6000920250000021  0.3485597499999997
  0.3241886699999981  0.1000920250000021  0.8485597499999997
  0.8241886699999981  0.1000920250000021  0.8485597499999997
  0.3241886699999981  0.6000920250000021  0.8485597499999997
  0.8241886699999981  0.6000920250000021  0.8485597499999997
  0.0741886699999981  0.3500920250000021  0.3485597499999997
  0.5741886699999981  0.3500920250000021  0.3485597499999997
  0.0741886699999981  0.8500920250000021  0.3485597499999997
  0.5741886699999981  0.8500920250000021  0.3485597499999997
  0.0741886699999981  0.3500920250000021  0.8485597499999997
  0.5741886699999981  0.3500920250000021  0.8485597499999997
  0.0741886699999981  0.8500920250000021  0.8485597499999997
  0.5741886699999981  0.8500920250000021  0.8485597499999997
  0.3241891600000031  0.3500921400000010  0.3485631850000033
  0.8241891600000031  0.3500921400000010  0.3485631850000033
  0.3241891600000031  0.8500921400000010  0.3485631850000033
  0.8241891600000031  0.8500921400000010  0.3485631850000033
  0.3241891600000031  0.3500921400000010  0.8485631850000033
  0.8241891600000031  0.3500921400000010  0.8485631850000033
  0.3241891600000031  0.8500921400000010  0.8485631850000033
  0.8241891600000031  0.8500921400000010  0.8485631850000033
  0.0267790500000018  0.0527100600000026  0.1589770699999988
  0.5267790500000018  0.0527100600000026  0.1589770699999988
  0.0267790500000018  0.5527100600000026  0.1589770699999988
  0.5267790500000018  0.5527100600000026  0.1589770699999988
  0.0267790500000018  0.0527100600000026  0.6589770699999988
  0.5267790500000018  0.0527100600000026  0.6589770699999988
  0.0267790500000018  0.5527100600000026  0.6589770699999988
  0.5267790500000018  0.5527100600000026  0.6589770699999988
  0.2767718549999998  0.0527080399999988  0.1589736800000026
  0.7767718549999998  0.0527080399999988  0.1589736800000026
  0.2767718549999998  0.5527080399999988  0.1589736800000026
  0.7767718549999998  0.5527080399999988  0.1589736800000026
  0.2767718549999998  0.0527080399999988  0.6589736800000026
  0.7767718549999998  0.0527080399999988  0.6589736800000026
  0.2767718549999998  0.5527080399999988  0.6589736800000026
  0.7767718549999998  0.5527080399999988  0.6589736800000026
  0.0267718549999998  0.3027080399999988  0.1589736800000026
  0.5267718549999998  0.3027080399999988  0.1589736800000026
  0.0267718549999998  0.8027080399999988  0.1589736800000026
  0.5267718549999998  0.8027080399999988  0.1589736800000026
  0.0267718549999998  0.3027080399999988  0.6589736800000026
  0.5267718549999998  0.3027080399999988  0.6589736800000026
  0.0267718549999998  0.8027080399999988  0.6589736800000026
  0.5267718549999998  0.8027080399999988  0.6589736800000026
  0.2767790500000018  0.3027100600000026  0.1589770699999988
  0.7767790500000018  0.3027100600000026  0.1589770699999988
  0.2767790500000018  0.8027100600000026  0.1589770699999988
  0.7767790500000018  0.8027100600000026  0.1589770699999988
  0.2767790500000018  0.3027100600000026  0.6589770699999988
  0.7767790500000018  0.3027100600000026  0.6589770699999988
  0.2767790500000018  0.8027100600000026  0.6589770699999988
  0.7767790500000018  0.8027100600000026  0.6589770699999988
  0.1972919600000012  0.2232281450000002  0.3410263199999974
  0.6972919600000012  0.2232281450000002  0.3410263199999974
  0.1972919600000012  0.7232281450000002  0.3410263199999974
  0.6972919600000012  0.7232281450000002  0.3410263199999974
  0.1972919600000012  0.2232281450000002  0.8410263199999974
  0.6972919600000012  0.2232281450000002  0.8410263199999974
  0.1972919600000012  0.7232281450000002  0.8410263199999974
  0.6972919600000012  0.7232281450000002  0.8410263199999974
  0.4472899399999974  0.2232209499999982  0.3410229300000012
  0.9472899399999974  0.2232209499999982  0.3410229300000012
  0.4472899399999974  0.7232209499999982  0.3410229300000012
  0.9472899399999974  0.7232209499999982  0.3410229300000012
  0.4472899399999974  0.2232209499999982  0.8410229300000012
  0.9472899399999974  0.2232209499999982  0.8410229300000012
  0.4472899399999974  0.7232209499999982  0.8410229300000012
  0.9472899399999974  0.7232209499999982  0.8410229300000012
  0.1972899399999974  0.4732209499999982  0.3410229300000012
  0.6972899399999974  0.4732209499999982  0.3410229300000012
  0.1972899399999974  0.9732209499999982  0.3410229300000012
  0.6972899399999974  0.9732209499999982  0.3410229300000012
  0.1972899399999974  0.4732209499999982  0.8410229300000012
  0.6972899399999974  0.4732209499999982  0.8410229300000012
  0.1972899399999974  0.9732209499999982  0.8410229300000012
  0.6972899399999974  0.9732209499999982  0.8410229300000012
  0.4472919600000012  0.4732281450000002  0.3410263199999974
  0.9472919600000012  0.4732281450000002  0.3410263199999974
  0.4472919600000012  0.9732281450000002  0.3410263199999974
  0.9472919600000012  0.9732281450000002  0.3410263199999974
  0.4472919600000012  0.4732281450000002  0.8410263199999974
  0.9472919600000012  0.4732281450000002  0.8410263199999974
  0.4472919600000012  0.9732281450000002  0.8410263199999974
  0.9472919600000012  0.9732281450000002  0.8410263199999974
 
  0.00000000E+00  0.00000000E+00  0.00000000E+00
  0.00000000E+00  0.00000000E+00  0.00000000E+00
  0.00000000E+00  0.00000000E+00  0.00000000E+00
  0.00000000E+00  0.00000000E+00  0.00000000E+00
  0.00000000E+00  0.00000000E+00  0.00000000E+00
  0.00000000E+00  0.00000000E+00  0.00000000E+00
  0.00000000E+00  0.00000000E+00  0.00000000E+00
  0.00000000E+00  0.00000000E+00  0.00000000E+00
  0.00000000E+00  0.00000000E+00  0.00000000E+00
  0.00000000E+00  0.00000000E+00  0.00000000E+00
  0.00000000E+00  0.00000000E+00  0.00000000E+00
  0.00000000E+00  0.00000000E+00  0.00000000E+00
  0.00000000E+00  0.00000000E+00  0.00000000E+00
  0.00000000E+00  0.00000000E+00  0.00000000E+00
  0.00000000E+00  0.00000000E+00  0.00000000E+00
  0.00000000E+00  0.00000000E+00  0.00000000E+00
  0.00000000E+00  0.00000000E+00  0.00000000E+00
  0.00000000E+00  0.00000000E+00  0.00000000E+00
  0.00000000E+00  0.00000000E+00  0.00000000E+00
  0.00000000E+00  0.00000000E+00  0.00000000E+00
  0.00000000E+00  0.00000000E+00  0.00000000E+00
  0.00000000E+00  0.00000000E+00  0.00000000E+00
  0.00000000E+00  0.00000000E+00  0.00000000E+00
  0.00000000E+00  0.00000000E+00  0.00000000E+00
  0.00000000E+00  0.00000000E+00  0.00000000E+00
  0.00000000E+00  0.00000000E+00  0.00000000E+00
  0.00000000E+00  0.00000000E+00  0.00000000E+00
  0.00000000E+00  0.00000000E+00  0.00000000E+00
  0.00000000E+00  0.00000000E+00  0.00000000E+00
  0.00000000E+00  0.00000000E+00  0.00000000E+00
  0.00000000E+00  0.00000000E+00  0.00000000E+00
  0.00000000E+00  0.00000000E+00  0.00000000E+00
  0.00000000E+00  0.00000000E+00  0.00000000E+00
  0.00000000E+00  0.00000000E+00  0.00000000E+00
  0.00000000E+00  0.00000000E+00  0.00000000E+00
  0.00000000E+00  0.00000000E+00  0.00000000E+00
  0.00000000E+00  0.00000000E+00  0.00000000E+00
  0.00000000E+00  0.00000000E+00  0.00000000E+00
  0.00000000E+00  0.00000000E+00  0.00000000E+00
  0.00000000E+00  0.00000000E+00  0.00000000E+00
  0.00000000E+00  0.00000000E+00  0.00000000E+00
  0.00000000E+00  0.00000000E+00  0.00000000E+00
  0.00000000E+00  0.00000000E+00  0.00000000E+00
  0.00000000E+00  0.00000000E+00  0.00000000E+00
  0.00000000E+00  0.00000000E+00  0.00000000E+00
  0.00000000E+00  0.00000000E+00  0.00000000E+00
  0.00000000E+00  0.00000000E+00  0.00000000E+00
  0.00000000E+00  0.00000000E+00  0.00000000E+00
  0.00000000E+00  0.00000000E+00  0.00000000E+00
  0.00000000E+00  0.00000000E+00  0.00000000E+00
  0.00000000E+00  0.00000000E+00  0.00000000E+00
  0.00000000E+00  0.00000000E+00  0.00000000E+00
  0.00000000E+00  0.00000000E+00  0.00000000E+00
  0.00000000E+00  0.00000000E+00  0.00000000E+00
  0.00000000E+00  0.00000000E+00  0.00000000E+00
  0.00000000E+00  0.00000000E+00  0.00000000E+00
  0.00000000E+00  0.00000000E+00  0.00000000E+00
  0.00000000E+00  0.00000000E+00  0.00000000E+00
  0.00000000E+00  0.00000000E+00  0.00000000E+00
  0.00000000E+00  0.00000000E+00  0.00000000E+00
  0.00000000E+00  0.00000000E+00  0.00000000E+00
  0.00000000E+00  0.00000000E+00  0.00000000E+00
  0.00000000E+00  0.00000000E+00  0.00000000E+00
  0.00000000E+00  0.00000000E+00  0.00000000E+00
  0.00000000E+00  0.00000000E+00  0.00000000E+00
  0.00000000E+00  0.00000000E+00  0.00000000E+00
  0.00000000E+00  0.00000000E+00  0.00000000E+00
  0.00000000E+00  0.00000000E+00  0.00000000E+00
  0.00000000E+00  0.00000000E+00  0.00000000E+00
  0.00000000E+00  0.00000000E+00  0.00000000E+00
  0.00000000E+00  0.00000000E+00  0.00000000E+00
  0.00000000E+00  0.00000000E+00  0.00000000E+00
  0.00000000E+00  0.00000000E+00  0.00000000E+00
  0.00000000E+00  0.00000000E+00  0.00000000E+00
  0.00000000E+00  0.00000000E+00  0.00000000E+00
  0.00000000E+00  0.00000000E+00  0.00000000E+00
  0.00000000E+00  0.00000000E+00  0.00000000E+00
  0.00000000E+00  0.00000000E+00  0.00000000E+00
  0.00000000E+00  0.00000000E+00  0.00000000E+00
  0.00000000E+00  0.00000000E+00  0.00000000E+00
  0.00000000E+00  0.00000000E+00  0.00000000E+00
  0.00000000E+00  0.00000000E+00  0.00000000E+00
  0.00000000E+00  0.00000000E+00  0.00000000E+00
  0.00000000E+00  0.00000000E+00  0.00000000E+00
  0.00000000E+00  0.00000000E+00  0.00000000E+00
  0.00000000E+00  0.00000000E+00  0.00000000E+00
  0.00000000E+00  0.00000000E+00  0.00000000E+00
  0.00000000E+00  0.00000000E+00  0.00000000E+00
  0.00000000E+00  0.00000000E+00  0.00000000E+00
  0.00000000E+00  0.00000000E+00  0.00000000E+00
  0.00000000E+00  0.00000000E+00  0.00000000E+00
  0.00000000E+00  0.00000000E+00  0.00000000E+00
  0.00000000E+00  0.00000000E+00  0.00000000E+00
  0.00000000E+00  0.00000000E+00  0.00000000E+00
  0.00000000E+00  0.00000000E+00  0.00000000E+00
  0.00000000E+00  0.00000000E+00  0.00000000E+00
  0.00000000E+00  0.00000000E+00  0.00000000E+00
  0.00000000E+00  0.00000000E+00  0.00000000E+00
  0.00000000E+00  0.00000000E+00  0.00000000E+00
  0.00000000E+00  0.00000000E+00  0.00000000E+00
  0.00000000E+00  0.00000000E+00  0.00000000E+00
  0.00000000E+00  0.00000000E+00  0.00000000E+00
  0.00000000E+00  0.00000000E+00  0.00000000E+00
  0.00000000E+00  0.00000000E+00  0.00000000E+00
  0.00000000E+00  0.00000000E+00  0.00000000E+00
  0.00000000E+00  0.00000000E+00  0.00000000E+00
  0.00000000E+00  0.00000000E+00  0.00000000E+00
  0.00000000E+00  0.00000000E+00  0.00000000E+00
  0.00000000E+00  0.00000000E+00  0.00000000E+00
  0.00000000E+00  0.00000000E+00  0.00000000E+00
  0.00000000E+00  0.00000000E+00  0.00000000E+00
  0.00000000E+00  0.00000000E+00  0.00000000E+00
  0.00000000E+00  0.00000000E+00  0.00000000E+00
  0.00000000E+00  0.00000000E+00  0.00000000E+00
  0.00000000E+00  0.00000000E+00  0.00000000E+00
  0.00000000E+00  0.00000000E+00  0.00000000E+00
  0.00000000E+00  0.00000000E+00  0.00000000E+00
  0.00000000E+00  0.00000000E+00  0.00000000E+00
  0.00000000E+00  0.00000000E+00  0.00000000E+00
  0.00000000E+00  0.00000000E+00  0.00000000E+00
  0.00000000E+00  0.00000000E+00  0.00000000E+00
  0.00000000E+00  0.00000000E+00  0.00000000E+00
  0.00000000E+00  0.00000000E+00  0.00000000E+00
  0.00000000E+00  0.00000000E+00  0.00000000E+00
  0.00000000E+00  0.00000000E+00  0.00000000E+00
  0.00000000E+00  0.00000000E+00  0.00000000E+00
  0.00000000E+00  0.00000000E+00  0.00000000E+00
  0.00000000E+00  0.00000000E+00  0.00000000E+00
  0.00000000E+00  0.00000000E+00  0.00000000E+00
  0.00000000E+00  0.00000000E+00  0.00000000E+00
  0.00000000E+00  0.00000000E+00  0.00000000E+00
  0.00000000E+00  0.00000000E+00  0.00000000E+00
  0.00000000E+00  0.00000000E+00  0.00000000E+00
  0.00000000E+00  0.00000000E+00  0.00000000E+00
  0.00000000E+00  0.00000000E+00  0.00000000E+00
  0.00000000E+00  0.00000000E+00  0.00000000E+00
  0.00000000E+00  0.00000000E+00  0.00000000E+00
  0.00000000E+00  0.00000000E+00  0.00000000E+00
  0.00000000E+00  0.00000000E+00  0.00000000E+00
  0.00000000E+00  0.00000000E+00  0.00000000E+00
  0.00000000E+00  0.00000000E+00  0.00000000E+00
  0.00000000E+00  0.00000000E+00  0.00000000E+00
  0.00000000E+00  0.00000000E+00  0.00000000E+00
  0.00000000E+00  0.00000000E+00  0.00000000E+00
  0.00000000E+00  0.00000000E+00  0.00000000E+00
  0.00000000E+00  0.00000000E+00  0.00000000E+00
  0.00000000E+00  0.00000000E+00  0.00000000E+00
  0.00000000E+00  0.00000000E+00  0.00000000E+00
  0.00000000E+00  0.00000000E+00  0.00000000E+00
  0.00000000E+00  0.00000000E+00  0.00000000E+00
  0.00000000E+00  0.00000000E+00  0.00000000E+00
  0.00000000E+00  0.00000000E+00  0.00000000E+00
  0.00000000E+00  0.00000000E+00  0.00000000E+00
  0.00000000E+00  0.00000000E+00  0.00000000E+00
  0.00000000E+00  0.00000000E+00  0.00000000E+00
  0.00000000E+00  0.00000000E+00  0.00000000E+00
  0.00000000E+00  0.00000000E+00  0.00000000E+00
  0.00000000E+00  0.00000000E+00  0.00000000E+00
  0.00000000E+00  0.00000000E+00  0.00000000E+00
  0.00000000E+00  0.00000000E+00  0.00000000E+00
  0.00000000E+00  0.00000000E+00  0.00000000E+00
  0.00000000E+00  0.00000000E+00  0.00000000E+00
  0.00000000E+00  0.00000000E+00  0.00000000E+00
  0.00000000E+00  0.00000000E+00  0.00000000E+00
  0.00000000E+00  0.00000000E+00  0.00000000E+00
  0.00000000E+00  0.00000000E+00  0.00000000E+00
  0.00000000E+00  0.00000000E+00  0.00000000E+00
  0.00000000E+00  0.00000000E+00  0.00000000E+00
  0.00000000E+00  0.00000000E+00  0.00000000E+00
  0.00000000E+00  0.00000000E+00  0.00000000E+00
  0.00000000E+00  0.00000000E+00  0.00000000E+00
  0.00000000E+00  0.00000000E+00  0.00000000E+00
  0.00000000E+00  0.00000000E+00  0.00000000E+00
  0.00000000E+00  0.00000000E+00  0.00000000E+00
  0.00000000E+00  0.00000000E+00  0.00000000E+00
  0.00000000E+00  0.00000000E+00  0.00000000E+00
  0.00000000E+00  0.00000000E+00  0.00000000E+00
  0.00000000E+00  0.00000000E+00  0.00000000E+00
  0.00000000E+00  0.00000000E+00  0.00000000E+00
  0.00000000E+00  0.00000000E+00  0.00000000E+00
  0.00000000E+00  0.00000000E+00  0.00000000E+00
  0.00000000E+00  0.00000000E+00  0.00000000E+00
  0.00000000E+00  0.00000000E+00  0.00000000E+00
  0.00000000E+00  0.00000000E+00  0.00000000E+00
  0.00000000E+00  0.00000000E+00  0.00000000E+00
  0.00000000E+00  0.00000000E+00  0.00000000E+00
  0.00000000E+00  0.00000000E+00  0.00000000E+00
  0.00000000E+00  0.00000000E+00  0.00000000E+00
  0.00000000E+00  0.00000000E+00  0.00000000E+00
  0.00000000E+00  0.00000000E+00  0.00000000E+00
  0.00000000E+00  0.00000000E+00  0.00000000E+00
  0.00000000E+00  0.00000000E+00  0.00000000E+00
  0.00000000E+00  0.00000000E+00  0.00000000E+00
  0.00000000E+00  0.00000000E+00  0.00000000E+00
  0.00000000E+00  0.00000000E+00  0.00000000E+00
  0.00000000E+00  0.00000000E+00  0.00000000E+00
  0.00000000E+00  0.00000000E+00  0.00000000E+00
  0.00000000E+00  0.00000000E+00  0.00000000E+00
  0.00000000E+00  0.00000000E+00  0.00000000E+00
  0.00000000E+00  0.00000000E+00  0.00000000E+00
  0.00000000E+00  0.00000000E+00  0.00000000E+00
  0.00000000E+00  0.00000000E+00  0.00000000E+00
  0.00000000E+00  0.00000000E+00  0.00000000E+00
  0.00000000E+00  0.00000000E+00  0.00000000E+00
  0.00000000E+00  0.00000000E+00  0.00000000E+00
  0.00000000E+00  0.00000000E+00  0.00000000E+00
  0.00000000E+00  0.00000000E+00  0.00000000E+00
  0.00000000E+00  0.00000000E+00  0.00000000E+00
  0.00000000E+00  0.00000000E+00  0.00000000E+00
  0.00000000E+00  0.00000000E+00  0.00000000E+00
  0.00000000E+00  0.00000000E+00  0.00000000E+00
  0.00000000E+00  0.00000000E+00  0.00000000E+00
  0.00000000E+00  0.00000000E+00  0.00000000E+00
  0.00000000E+00  0.00000000E+00  0.00000000E+00
  0.00000000E+00  0.00000000E+00  0.00000000E+00
  0.00000000E+00  0.00000000E+00  0.00000000E+00
  0.00000000E+00  0.00000000E+00  0.00000000E+00
  0.00000000E+00  0.00000000E+00  0.00000000E+00
  0.00000000E+00  0.00000000E+00  0.00000000E+00
  0.00000000E+00  0.00000000E+00  0.00000000E+00
  0.00000000E+00  0.00000000E+00  0.00000000E+00
  0.00000000E+00  0.00000000E+00  0.00000000E+00
  0.00000000E+00  0.00000000E+00  0.00000000E+00
  0.00000000E+00  0.00000000E+00  0.00000000E+00
