# Compound: Li2OS2Fe2. Old comment: LFSO
   1.00000000000000     
     5.4177555536513733    0.0000000929735217   -0.0079197024776307
     2.7088739053719650    2.7099770417028424   -0.0039598501992012
     2.7079650575993353    0.0000004477851405    6.2972132930086300
   Li   O    S    Fe
     2     1     2     2
Direct
  0.0554866443121447  0.3927842055872174  0.9996630931528401
  0.5517291501002630  0.3927842055879399  0.0003369068471612
  0.0525541393442347  0.8948927313121274 -0.0000000000000301
  0.7036456497192890  0.8923245998263635  0.6997822819837282
  0.4040297504552551  0.8923245998243911  0.3002177180162797
  0.2039643531769801  0.9047283339315274  0.6813278724982821
  0.8913073128918367  0.9047283339304244  0.3186721275017386
 
  0.00000000E+00  0.00000000E+00  0.00000000E+00
  0.00000000E+00  0.00000000E+00  0.00000000E+00
  0.00000000E+00  0.00000000E+00  0.00000000E+00
  0.00000000E+00  0.00000000E+00  0.00000000E+00
  0.00000000E+00  0.00000000E+00  0.00000000E+00
  0.00000000E+00  0.00000000E+00  0.00000000E+00
  0.00000000E+00  0.00000000E+00  0.00000000E+00
