# Compound: Fe24Li31O16S24. Old comment:
   1.0000000000000000     
     7.8866538400000001   -7.9475566999999998    0.0601846200000000
     7.3433505600000002    7.9467915400000004   -2.8792872599999999
    -0.0478291200000000   -0.1071026000000000   10.5527142699999992
   Fe   Li   O    S 
    24    31    16    24
Direct
  0.2581061906884959  0.6635160437279121  0.6032421210417859
  0.2321546965082053  0.3331511673503033  0.3984277564580535
  0.1225559900549541  0.3249447855645306  0.8028418974627086
  0.3729713540544541  0.5800688962420886  0.8207451391864601
  0.8755988152473781  0.1759118481527302  0.1955497903626348
  0.1260573318687695  0.4214309615415145  0.1822759807719787
  0.0173199583208582  0.9163848981721937  0.6006866978907789
  0.9909760224566814  0.5864603109866012  0.3954831170879957
  0.8669528424691767  0.5717097319764476  0.7906741591835383
  0.1237146402928658  0.8287828339316836  0.8170693534205312
  0.6240962270936928  0.4301749821031359  0.2039357026031373
  0.8771920819925203  0.6709529798601174  0.1789477512013443
  0.7636252361687040  0.1671971700039522  0.6004125694235017
  0.7392940489589936  0.8361862411213495  0.3953138859550046
  0.6233561863629292  0.8213790806559661  0.7998094249503410
  0.8733545650773030  0.0773326051891895  0.8134782848394529
  0.3830012230472110  0.6781325718429436  0.2105699207086972
  0.6237403845765543  0.9201674925574114  0.1855098915358132
  0.5064039421049814  0.4140458545571086  0.6031666101446534
  0.4857894355500134  0.0844934592271881  0.3982358663072010
  0.3741540830318074  0.0742011815870945  0.8032310658999156
  0.6252883225309246  0.3301717976263072  0.8133267120286622
  0.1272464251251021  0.9250014032079144  0.1967307032083460
  0.3760944658884823  0.1727153619193989  0.1857191113756859
  0.4703311632873233  0.4704727859342278  0.0029711067859393
  0.0210152375252331  0.5241763451066944  0.9919718242656681
  0.9763199908760154  0.3776581703304851  0.6052907581606959
  0.0221644519263529  0.1202637377878578  0.3915185671746040
  0.8750378419362972  0.3369391061933240  0.8441808819987107
  0.1209301085360357  0.5662400628172292  0.7763865263339356
  0.1245992093896796  0.1632384748241240  0.1548439288980549
  0.3809758469680118  0.4425602041855318  0.2442572256060764
  0.2286420118398962  0.7256732805379937  0.0075793156859918
  0.7780814629999235  0.7780228880693587  0.9957836387435515
  0.7762739186812657  0.3723493074317992  0.3918855987673582
  0.6242452025262994  0.5890309529796462  0.8444856419804209
  0.8692702061008230  0.8088463455962613  0.7581146100913168
  0.8729925794740714  0.4155405570651768  0.1554399443421758
  0.1289326882537094  0.6837622596188178  0.2235227412351078
  0.9738261662670771  0.9760285433985190  0.0026293102348400
  0.5254507826266089  0.0213646654622110  0.9955862395930414
  0.4749520696334654  0.8745344513486815  0.6050327632947922
  0.6581887715893263  0.6258578291149538  0.5387175423331610
  0.3759250096291511  0.8348245628352494  0.8438474335255987
  0.6214574495175745  0.0663318815018407  0.7724846412013869
  0.6246428900417734  0.6605187789764493  0.1571252079342357
  0.8782855377983998  0.9341694561483884  0.2247489249723445
  0.7234955399672782  0.2295405107364411  0.0038100353636797
  0.2760600958078724  0.2740757104520471  0.9969594090872385
  0.2273974715392702  0.1296208100311089  0.6077943853156854
  0.2739822385562588  0.8730207425621508  0.3940925163698740
  0.1250586455763038  0.0866601851957180  0.8449355479927689
  0.3711632154275005  0.3158936695516950  0.7751868089983219
  0.3752618330466485  0.9127947753084474  0.1563057666362710
  0.6280782226635089  0.1834253614921475  0.2261212507239542
  0.9957358581699572  0.4503762362845447  0.8018414934167813
  0.2464252525562152  0.7019856373485820  0.8130066504681182
  0.0011976835312058  0.0500651575379084  0.1934588220579132
  0.2518516597407531  0.3002193592489399  0.1927346349653693
  0.7486089539685682  0.7043946656330589  0.8117168860009750
  0.9976754726787714  0.9498926248580145  0.8064364893148614
  0.7496556059568849  0.3008057316091893  0.1943079443662483
  0.0031024931805441  0.5480504303625310  0.1859604943034252
  0.4993445380698722  0.9492032815206777  0.8047524025363394
  0.7490410877215061  0.2014105339306815  0.8066827188162481
  0.4991430656436008  0.5442003253703822  0.1840893905006597
  0.7516432767799677  0.7986694489612682  0.1888030842877302
  0.2481379357125036  0.1996822693834184  0.8058930298087731
  0.4975882314983418  0.4516104205748067  0.8104111803134383
  0.2537733891380808  0.7991540982115963  0.1972607469814099
  0.5006940817620100  0.0489587995367697  0.1907760465878249
  0.9993107068438933  0.2491730078213313  0.9989875991152896
  0.2451737113861165  0.4956086612548776  0.9931782221517619
  0.0054015554972008  0.3466583262292893  0.3651325775191582
  0.2394230920895089  0.5879766794010111  0.3677423201077017
  0.9939205755512187  0.1525211865690954  0.6321731501109576
  0.2539129588854468  0.4123538792079528  0.6324700384147696
  0.7513397870493965  0.4985282651296736  0.9955241639957619
  0.0034375855096684  0.7538363761218130  0.0048653805430006
  0.7669685979226406  0.5945999901457383  0.3530084857611852
  0.9956637466679434  0.8373962701433774  0.3666623654811263
  0.7400871740218760  0.4025431129786733  0.6290311734472765
  0.0091443105756993  0.6619404404796195  0.6315892913208332
  0.4993295097514344  0.7522191014264370  0.0023001142060973
  0.7508074651549552  0.0041941405441427  0.0019794709712257
  0.5079406185717399  0.8514150476682920  0.3680633032700900
  0.7467549785162474  0.0863545358200030  0.3660714987578472
  0.4803834338883831  0.6542984599027397  0.6429352900963736
  0.7514554057800354  0.9119297946811328  0.6305090697358747
  0.2496592401552750  1.0003997866717786  0.0006339288460118
  0.4985778217005665  0.2450533402243691  0.9955944415267490
  0.2549374665415620  0.0974532009105659  0.3670257787871474
  0.4968329153330087  0.3341968050664071  0.3682480300489570
  0.2441023192052468  0.9033535151183563  0.6341706550421888
  0.5030227055883446  0.1642662858522222  0.6332202039522485

             NaN             NaN             NaN
             NaN             NaN             NaN
             NaN             NaN             NaN
             NaN             NaN             NaN
             NaN             NaN             NaN
             NaN             NaN             NaN
             NaN             NaN             NaN
             NaN             NaN             NaN
             NaN             NaN             NaN
             NaN             NaN             NaN
             NaN             NaN             NaN
             NaN             NaN             NaN
             NaN             NaN             NaN
             NaN             NaN             NaN
             NaN             NaN             NaN
             NaN             NaN             NaN
             NaN             NaN             NaN
             NaN             NaN             NaN
             NaN             NaN             NaN
             NaN             NaN             NaN
             NaN             NaN             NaN
             NaN             NaN             NaN
             NaN             NaN             NaN
             NaN             NaN             NaN
             NaN             NaN             NaN
             NaN             NaN             NaN
             NaN             NaN             NaN
             NaN             NaN             NaN
             NaN             NaN             NaN
             NaN             NaN             NaN
             NaN             NaN             NaN
             NaN             NaN             NaN
             NaN             NaN             NaN
             NaN             NaN             NaN
             NaN             NaN             NaN
             NaN             NaN             NaN
             NaN             NaN             NaN
             NaN             NaN             NaN
             NaN             NaN             NaN
             NaN             NaN             NaN
             NaN             NaN             NaN
             NaN             NaN             NaN
             NaN             NaN             NaN
             NaN             NaN             NaN
             NaN             NaN             NaN
             NaN             NaN             NaN
             NaN             NaN             NaN
             NaN             NaN             NaN
             NaN             NaN             NaN
             NaN             NaN             NaN
             NaN             NaN             NaN
             NaN             NaN             NaN
             NaN             NaN             NaN
             NaN             NaN             NaN
             NaN             NaN             NaN
             NaN             NaN             NaN
             NaN             NaN             NaN
             NaN             NaN             NaN
             NaN             NaN             NaN
             NaN             NaN             NaN
             NaN             NaN             NaN
             NaN             NaN             NaN
             NaN             NaN             NaN
             NaN             NaN             NaN
             NaN             NaN             NaN
             NaN             NaN             NaN
             NaN             NaN             NaN
             NaN             NaN             NaN
             NaN             NaN             NaN
             NaN             NaN             NaN
             NaN             NaN             NaN
             NaN             NaN             NaN
             NaN             NaN             NaN
             NaN             NaN             NaN
             NaN             NaN             NaN
             NaN             NaN             NaN
             NaN             NaN             NaN
             NaN             NaN             NaN
             NaN             NaN             NaN
             NaN             NaN             NaN
             NaN             NaN             NaN
             NaN             NaN             NaN
             NaN             NaN             NaN
             NaN             NaN             NaN
             NaN             NaN             NaN
             NaN             NaN             NaN
             NaN             NaN             NaN
             NaN             NaN             NaN
             NaN             NaN             NaN
             NaN             NaN             NaN
             NaN             NaN             NaN
             NaN             NaN             NaN
             NaN             NaN             NaN
             NaN             NaN             NaN
             NaN             NaN             NaN
