# Compound: Fe24Li31O16S24. Old comment: Li4Fe3S3O2 Enum Minimum PATH3 INIT FRAME 04
  1.0000000000
  7.8866538400  -7.9475567000   0.0601846200
  7.3433505600   7.9467915400  -2.8792872600
 -0.0478291200  -0.1071026000  10.5527142700
Fe    Li    O     S
   24    31    16    24
Direct
  0.2671834700   0.6649305533   0.6017042733
  0.2341024967   0.3338312900   0.3984528800
  0.1243526367   0.3258307900   0.8026715133
  0.3764902200   0.5805117533   0.8158540833
  0.8747345500   0.1758066700   0.1974509400
  0.1249072233   0.4209912500   0.1838856067
  0.0151489900  -0.0845887633   0.6014336167
 -0.0146719700   0.5853604633   0.3980540533
  0.8714659200   0.5739191200   0.7963467767
  0.1253275667   0.8288360600   0.8153919733
  0.6242828367   0.4304521533   0.2064373133
  0.8744660033   0.6702482533   0.1851830500
  0.7645814800   0.1639907467   0.6011551833
  0.7307661700   0.8283769300   0.3990464867
  0.6243841967   0.8216660100   0.7986067033
  0.8756499433   0.0797721367   0.8160472867
  0.3794703633   0.6761308000   0.2073630867
  0.6244008200  -0.0787894600   0.1870251733
  0.5171240800   0.4210242933   0.6008349700
  0.4855084500   0.0865399200   0.3980757633
  0.3756350900   0.0744078800   0.8013339433
  0.6257425367   0.3293096267   0.8129412767
  0.1263118933  -0.0757504300   0.1969895733
  0.3745240867   0.1706255067   0.1836915900
  0.4728768400   0.4725855367   0.0023765233
  0.0226651800   0.5251168500  -0.0053344867
 -0.0220596600   0.3787973500   0.6062872233
  0.0221182233   0.1201557367   0.3925300733
  0.8755614333   0.3379089867   0.8442410767
  0.1231335833   0.5666761333   0.7734562467
  0.1236454933   0.1628864767   0.1557763833
  0.3791186967   0.4385669700   0.2377943433
  0.2276927067   0.7246642467   0.0053809900
  0.7750293500   0.7746203967  -0.0024724600
  0.7732946133   0.3732677633   0.3942542533
  0.6260311433   0.5883858567   0.8443359433
  0.8716728433   0.8139921267   0.7674702967
  0.8724232533   0.4147844400   0.1558851433
  0.1276547467   0.6832919733   0.2260989367
 -0.0258063067  -0.0247625867   0.0042440333
  0.5260690133   0.0214150667  -0.0045214200
  0.4782859367   0.8738755333   0.6044699767
  0.6566059200   0.6267302100   0.5342831900
  0.3768746467   0.8361975400   0.8445639867
  0.6231540867   0.0660640267   0.7736516433
  0.6229498800   0.6613292333   0.1575189500
  0.8766011733  -0.0662020467   0.2297129500
  0.7231115267   0.2294530667   0.0045017867
  0.2765276067   0.2750557233  -0.0042233400
  0.2275520400   0.1295192500   0.6070408367
  0.2720981833   0.8719858600   0.3937019867
  0.1265056933   0.0870458067   0.8447949000
  0.3734911333   0.3161597233   0.7704375333
  0.3753361600  -0.0884141467   0.1562357033
  0.6268207300   0.1842062233   0.2258026067
 -0.0017228500   0.4512752100   0.8039987100
  0.2493861967   0.7020499600   0.8099698733
  0.0001835267   0.0491585200   0.1946148533
  0.2510840733   0.2991085467   0.1917217033
  0.7498976233   0.7029531967   0.8086188533
 -0.0006865100  -0.0486127500   0.8084471733
  0.7492596633   0.3013610500   0.1950447733
  0.0011964500   0.5479012633   0.1893162033
  0.5002214667  -0.0509837167   0.8045105033
  0.7498064600   0.2019694733   0.8088780533
  0.4990629133   0.5453216600   0.1876582000
  0.7500613100   0.7980948567   0.1927809700
  0.2496897633   0.2004990300   0.8049076467
  0.4997011033   0.4517892567   0.8079465233
  0.2524179733   0.7981527567   0.1957170433
  0.5004152500   0.0484305867   0.1900655733
 -0.0003005800   0.2498176133  -0.0001958833
  0.2473124533   0.4973051700  -0.0045038933
  0.0051355900   0.3464750500   0.3660660767
  0.2414835400   0.5868565867   0.3676044933
 -0.0049166000   0.1529609100   0.6330789767
  0.2541895600   0.4134578267   0.6324861400
  0.7512753467   0.5004848333  -0.0021662133
  0.0017641200   0.7519282133   0.0027976300
  0.7596723800   0.5962208500   0.3645010467
 -0.0030946033   0.8366002633   0.3670477467
  0.7446196533   0.4016151333   0.6324467167
  0.0066117967   0.6635181867   0.6331280967
  0.5005643133   0.7510977533   0.0011818233
  0.7508185667   0.0024704567   0.0018122500
  0.5050345533   0.8505686767   0.3669999833
  0.7451369033   0.0886271600   0.3662769733
  0.4919482633   0.6532556833   0.6365878533
  0.7550737033  -0.0852042500   0.6320369300
  0.2496600600  -0.0003637667   0.0006159000
  0.4988171533   0.2459948800  -0.0040513000
  0.2547014867   0.0970252067   0.3667197533
  0.4949151800   0.3333995100   0.3678225567
  0.2451022467  -0.0966672433   0.6338231833
  0.5053571633   0.1623396567   0.6331384400
