# Compound: Li2O2S3Fe4. Old comment: LFS
   1.00000000000000     
     3.8908625039563529   -0.0019891865342623    0.0241006853596345
    -0.0147980215972907    3.8908348714830510    0.0241006853550451
    -2.0131963386871101   -2.0198347901948046   10.0603136685441257
   Li   O    S    Fe
     2     2     3     4
Direct
  0.6105963591217015  0.7272634329964381  0.8349175486406227
  0.2727365670035621  0.3894036408782983  0.1650824513593773
  0.7907487023634526  0.4064200964878888  0.1967910401713963
  0.5935799035121105  0.2092512976365482  0.8032089598286036
  0.0092969578610813  0.6154037529332275  0.6289928056989491
  0.3845962470667726  0.9907030421389182  0.3710071943010511
  0.1922278834337513  0.8077721165662488  0.0000000000000000
  0.8563871077717820  0.5191734005616728  0.3929101778401398
  0.4808265994383277  0.1436128922282175  0.6070898221598602
  0.1135329876675909  0.2289253052401477  0.8439181187827273
  0.7710746947598525  0.8864670123324091  0.1560818812172726
 
  0.00000000E+00  0.00000000E+00  0.00000000E+00
  0.00000000E+00  0.00000000E+00  0.00000000E+00
  0.00000000E+00  0.00000000E+00  0.00000000E+00
  0.00000000E+00  0.00000000E+00  0.00000000E+00
  0.00000000E+00  0.00000000E+00  0.00000000E+00
  0.00000000E+00  0.00000000E+00  0.00000000E+00
  0.00000000E+00  0.00000000E+00  0.00000000E+00
  0.00000000E+00  0.00000000E+00  0.00000000E+00
  0.00000000E+00  0.00000000E+00  0.00000000E+00
  0.00000000E+00  0.00000000E+00  0.00000000E+00
  0.00000000E+00  0.00000000E+00  0.00000000E+00
