# Compound: Li2O2S3Fe4. Old comment: LFSO-Li2Fe4S3O2-201025-153957-9403b6 RELAXED
  1.0000000000
  3.9324192900  -0.0022389800   0.0242927000
 -0.0151846200   3.9323906100   0.0242927000
 -2.0348367300  -2.0415465400  10.1705184300
Li    O     S     Fe
    2     2     3     4
Direct
  0.6106533200   0.7273034700   0.8352077500
  0.2726965300   0.3893466800   0.1647922500
  0.7904813200   0.4062185900   0.1964302700
  0.5937814100   0.2095186800   0.8035697300
  0.0090756200   0.6160746900   0.6290665600
  0.3839253100   0.9909243800   0.3709334400
  0.1921739500   0.8078260500   0.0000000000
  0.8568631400   0.5190872000   0.3931949600
  0.4809128000   0.1431368600   0.6068050400
  0.1138555600   0.2288149500   0.8442771500
  0.7711850500   0.8861444400   0.1557228500
