# No comment
0
Gamma
            6             6             2
  0.000000000   0.000000000   0.000000000
