# Compound: Li8Fe4S4O4. Old comment: Fe4Li8O4S4
  1.0000000000
  7.7124110100   0.0000000000   0.0000000000
  0.0000000000   5.6051212100   0.0000000000
  0.0000000000   0.0000000000   5.6385134900
Li    Fe    S     O
    8     4     4     4
Direct
  0.2500000000   0.5000000000   0.9350201900
  0.2500000000   0.0000000000   0.5649798100
  0.7500000000   0.5000000000   0.0649798100
  0.7500000000   0.0000000000   0.4350201900
  0.5384813600   0.7500000000   0.7500000000
  0.4615186400   0.2500000000   0.2500000000
  0.0384813600   0.7500000000   0.2500000000
  0.9615186400   0.2500000000   0.7500000000
  0.9721329500   0.7500000000   0.7500000000
  0.0278670500   0.2500000000   0.2500000000
  0.4721329500   0.7500000000   0.2500000000
  0.5278670500   0.2500000000   0.7500000000
  0.2500000000   0.0000000000   1.0021210600
  0.2500000000   0.5000000000   0.4978789400
  0.7500000000   0.0000000000  -0.0021210600
  0.7500000000   0.5000000000   0.5021210600
  0.0000000000   0.5000000000   0.0000000000
  0.0000000000   0.0000000000   0.5000000000
  0.5000000000   0.5000000000   0.0000000000
  0.5000000000   0.0000000000   0.5000000000
