# Compound: Fe24Li31O16S24. Old comment:
   1.0000000000000000     
     7.8866538400000001   -7.9475566999999998    0.0601846200000000
     7.3433505600000002    7.9467915400000004   -2.8792872599999999
    -0.0478291200000000   -0.1071026000000000   10.5527142699999992
   Fe   Li   O    S 
    24    31    16    24
Direct
  0.2591957826496721  0.6639161900191924  0.6023343795032604
  0.2338961024270628  0.3363136352799116  0.3972431945005963
  0.1234343722124007  0.3243300787980855  0.8050153730790128
  0.3866707813693899  0.5866276349986828  0.8143000364428588
  0.8742906399219821  0.1745696551503138  0.1986887123164941
  0.1249132488781419  0.4219694558237265  0.1867117529069451
  0.0234290275292334  0.9236000899755018  0.6010328255062091
  0.9798275593867967  0.5843376952800247  0.3998522695055313
  0.8749552683931255  0.5770025651386637  0.8019364031863675
  0.1247053281243925  0.8276876151298528  0.8160746787981199
  0.6290680408117870  0.4280499537035840  0.1958534357897805
  0.8730941576802699  0.6685650330305897  0.1841493810666239
  0.7632688334178254  0.1597062828557864  0.6024955374378628
  0.7350237900872635  0.8304568516305767  0.3993836154290725
  0.6267719742972238  0.8257165536779829  0.8021919989290384
  0.8737926458377765  0.0785011439246866  0.8154978500225043
  0.3779925094699654  0.6768919963193709  0.1991429856972891
  0.6246306070471600  0.9208131200728981  0.1860194863461894
  0.4929609059773985  0.3923725286073877  0.5986356053856404
  0.4832988202359421  0.0801756296051805  0.3982205241205370
  0.3730865663752353  0.0747490522511920  0.8046664790171559
  0.6329337525373160  0.3403689828800995  0.8142522741049444
  0.1248351577333493  0.9241882085940649  0.1975146633888768
  0.3745266686517279  0.1717302980793808  0.1867339068238428
  0.4883465543298966  0.4889604796503111  0.9986658667086636
  0.0255176386501327  0.5245626786643817  0.9981466211582886
  0.9793290741190049  0.3840830845991631  0.6080780919091238
  0.0213907384973232  0.1209753370541567  0.3932313584818479
  0.8769875302705455  0.3374115215853857  0.8433103000967415
  0.1288428040790175  0.5648656548881293  0.7796636872630927
  0.1222912871662141  0.1615813260389058  0.1541065654473245
  0.3783923046465004  0.4327707866375261  0.2180329049652251
  0.2278341156396112  0.7244855768220559  0.0050467888363188
  0.7684699518183367  0.7669564398742680  0.9925327333736043
  0.6599353719519313  0.5834969745411357  0.6941120138757778
  0.7716115338879214  0.3778982914090075  0.3956170381227063
  0.8709296111401654  0.8069780370734767  0.7451078100515692
  0.8748772303666210  0.4119959689671990  0.1542722079871802
  0.1268233777466446  0.6842196696178109  0.2303041922789871
  0.9694013120289905  0.9702613520471112  0.0013632777199021
  0.5249219128400711  0.0247636492392456  0.9984792029150137
  0.4819905327018493  0.8806190555535556  0.6087904826691476
  0.5266188474901513  0.6170921964436968  0.3950485377397756
  0.3766744417998275  0.8378580087455051  0.8439766230359523
  0.6200007606141711  0.0736282344235770  0.7797845322590559
  0.6255732929446112  0.6636118686656620  0.1524092464844038
  0.8760401602029524  0.9319869986381937  0.2271953054051824
  0.7241667910764262  0.2284740999215778  0.0043976994546476
  0.2727688271707044  0.2724975001099661  0.9989086800153462
  0.2334284965749506  0.1367020551383346  0.6089165193117925
  0.2741121934227103  0.8720204120058724  0.3940320025643539
  0.1247182009488153  0.0861364661322927  0.8459320385798508
  0.3726837741820167  0.3212228464922879  0.7922991855063222
  0.3733248733617519  0.9125246404093778  0.1536495872509493
  0.6266132696957867  0.1850298433671744  0.2295948315666360
  0.0012200191419757  0.4522419349557440  0.8084335951272984
  0.2509556900645942  0.7019911672669780  0.8117848490706182
  0.9991973290945426  0.0477515905327465  0.1932624992853954
  0.2491666049810203  0.2973160107995572  0.1910872974586065
  0.7549091316778785  0.7063271259600756  0.8058868301859332
  0.9976538943074290  0.9486518977956448  0.8047437779373077
  0.7504098766289240  0.3001393019868469  0.1957844971658943
  0.0009872285415667  0.5484600247141753  0.1930037126601838
  0.4999533619026891  0.9534515262302419  0.8087900039671492
  0.7489504673083867  0.2038058540029600  0.8113517296335433
  0.5034728111755110  0.5510248723322143  0.1931623787928629
  0.7502285254055135  0.7976292236123905  0.1915002979328379
  0.2484218415135739  0.2006064258386894  0.8089292244488656
  0.4990180662611929  0.4494337089567399  0.8011001018558436
  0.2505877669004691  0.7991988230735859  0.1963119937655405
  0.4996475889187864  0.0488626043840627  0.1931742818132148
 -0.0000928702319080  0.2491417135614510  0.9998253707591878
  0.2519570256651563  0.4981326840844074  0.9997698419757627
  0.0049533043405005  0.3460349463167223  0.3660500015826177
  0.2476074648989021  0.5853271573596678  0.3655029266440459
  0.9960150699046197  0.1544571890933096  0.6343795626601949
  0.2567078805517842  0.4102155005285355  0.6320767379149436
  0.7521664319056548  0.4984374645053781  0.0019948080370905
  0.0019097542119847  0.7496708638022640  0.0033377583975079
  0.7564005256282653  0.5979393018744243  0.3666592972254539
  0.9945704529865731  0.8372832459266863  0.3692184520219645
  0.7525171693826384  0.3942019884127754  0.6304811572819441
  0.0149633290309032  0.6571589085675191  0.6321429298635716
  0.4978645857868952  0.7527653503319193  0.0038709896127664
  0.7484793653243794  0.0025217067666722  0.0025832961825888
  0.5054007740340550  0.8469650600372914  0.3679833116905680
  0.7450568133825793  0.0861325670395805  0.3662791572618249
  0.4866833338914170  0.6609040826856626  0.6315196342736054
  0.7492770477041941  0.9226329176062155  0.6324538914631780
  0.2489626510043698  0.0000177585014443  0.0003564837925375
  0.4985503298606790  0.2520223708018236  0.0003901808253228
  0.2540305562831667  0.0966092215751563  0.3666551005920702
  0.4943234607923570  0.3391591605548072  0.3646861821781786
  0.2458063352235556  0.9046088599178567  0.6344801574764737
  0.5018876050865437  0.1649625520983631  0.6320743746343389

             NaN             NaN             NaN
             NaN             NaN             NaN
             NaN             NaN             NaN
             NaN             NaN             NaN
             NaN             NaN             NaN
             NaN             NaN             NaN
             NaN             NaN             NaN
             NaN             NaN             NaN
             NaN             NaN             NaN
             NaN             NaN             NaN
             NaN             NaN             NaN
             NaN             NaN             NaN
             NaN             NaN             NaN
             NaN             NaN             NaN
             NaN             NaN             NaN
             NaN             NaN             NaN
             NaN             NaN             NaN
             NaN             NaN             NaN
             NaN             NaN             NaN
             NaN             NaN             NaN
             NaN             NaN             NaN
             NaN             NaN             NaN
             NaN             NaN             NaN
             NaN             NaN             NaN
             NaN             NaN             NaN
             NaN             NaN             NaN
             NaN             NaN             NaN
             NaN             NaN             NaN
             NaN             NaN             NaN
             NaN             NaN             NaN
             NaN             NaN             NaN
             NaN             NaN             NaN
             NaN             NaN             NaN
             NaN             NaN             NaN
             NaN             NaN             NaN
             NaN             NaN             NaN
             NaN             NaN             NaN
             NaN             NaN             NaN
             NaN             NaN             NaN
             NaN             NaN             NaN
             NaN             NaN             NaN
             NaN             NaN             NaN
             NaN             NaN             NaN
             NaN             NaN             NaN
             NaN             NaN             NaN
             NaN             NaN             NaN
             NaN             NaN             NaN
             NaN             NaN             NaN
             NaN             NaN             NaN
             NaN             NaN             NaN
             NaN             NaN             NaN
             NaN             NaN             NaN
             NaN             NaN             NaN
             NaN             NaN             NaN
             NaN             NaN             NaN
             NaN             NaN             NaN
             NaN             NaN             NaN
             NaN             NaN             NaN
             NaN             NaN             NaN
             NaN             NaN             NaN
             NaN             NaN             NaN
             NaN             NaN             NaN
             NaN             NaN             NaN
             NaN             NaN             NaN
             NaN             NaN             NaN
             NaN             NaN             NaN
             NaN             NaN             NaN
             NaN             NaN             NaN
             NaN             NaN             NaN
             NaN             NaN             NaN
             NaN             NaN             NaN
             NaN             NaN             NaN
             NaN             NaN             NaN
             NaN             NaN             NaN
             NaN             NaN             NaN
             NaN             NaN             NaN
             NaN             NaN             NaN
             NaN             NaN             NaN
             NaN             NaN             NaN
             NaN             NaN             NaN
             NaN             NaN             NaN
             NaN             NaN             NaN
             NaN             NaN             NaN
             NaN             NaN             NaN
             NaN             NaN             NaN
             NaN             NaN             NaN
             NaN             NaN             NaN
             NaN             NaN             NaN
             NaN             NaN             NaN
             NaN             NaN             NaN
             NaN             NaN             NaN
             NaN             NaN             NaN
             NaN             NaN             NaN
             NaN             NaN             NaN
             NaN             NaN             NaN
