# Compound: Fe24Li31O16S24. Old comment: Fe24Li31O16S24
  1.0000000000
  7.8866538400  -7.9475567000   0.0601846200
  7.3433505600   7.9467915400  -2.8792872600
 -0.0478291200  -0.1071026000  10.5527142700
Fe    Li    O     S
   24    31    16    24
Direct
  0.2592287717   0.6638390642   0.6023422519
  0.2337342434   0.3360436157   0.3973552415
  0.1234361000   0.3243788584   0.8050315550
  0.3865330501   0.5865304991   0.8144426307
  0.8742962428   0.1745352042   0.1985782948
  0.1249684588   0.4220416248   0.1867376479
  0.0232266788   0.9233728028   0.6010151702
  0.9799913784   0.5845456420   0.3997901995
  0.8749222153   0.5769643019   0.8019152506
  0.1248162175   0.8277861811   0.8160792081
  0.6290393491   0.4280215245   0.1958623537
  0.8730539748   0.6685207249   0.1840429964
  0.7632711804   0.1597384646   0.6025057652
  0.7349789925   0.8303926849   0.3993530813
  0.6267531536   0.8257118132   0.8021771197
  0.8739050783   0.0786217151   0.8155665732
  0.3779818471   0.6768781423   0.1990634020
  0.6246405149   0.9208112964   0.1860407588
  0.4936268983   0.3932174724   0.5987141875
  0.4833748411   0.0803409243   0.3982749525
  0.3731782889   0.0747977921   0.8047339370
  0.6327446668   0.3401917050   0.8142864917
  0.1248858578   0.9242126433   0.1974064191
  0.3745764680   0.1717615850   0.1867561975
  0.4877279870   0.4882867873  -0.0012840677
  0.0253117070   0.5244110926   0.9980710084
  0.9796096889   0.3840320251   0.6080802014
  0.0212142896   0.1208395141   0.3932142394
  0.8768796964   0.3374511723   0.8433197205
  0.1286671394   0.5650075806   0.7797223481
  0.1223243408   0.1617419942   0.1543852159
  0.3783682507   0.4328877690   0.2185532995
  0.2278697567   0.7244997190   0.0049744308
  0.7687033031   0.7672862859   0.9926479106
  0.6599089307   0.5837182257   0.6950735020
  0.7716641141   0.3777298693   0.3956219703
  0.8709935369   0.8071139083   0.7453988826
  0.8748791762   0.4120168419   0.1543774618
  0.1267995115   0.6841233556   0.2297806809
  0.9696093285   0.9704354024   0.0013753998
  0.5249048317   0.0246597389   0.9984919468
  0.4818511693   0.8808895591   0.6087839577
  0.5267000486   0.6173992573   0.3950516927
  0.3767380237   0.8377992287   0.8439737775
  0.6201590801   0.0734219337   0.7797133365
  0.6255111292   0.6634676063   0.1520989098
  0.8760648582   0.9319568556   0.2271240081
  0.7240638300   0.2284465352   0.0043602894
  0.2728373775   0.2725322206   0.9988702905
  0.2331304502   0.1362841052   0.6088686325
  0.2738581839   0.8717908084   0.3939686103
  0.1247925966   0.0861503567   0.8457994292
  0.3725653280   0.3208609930   0.7911568950
  0.3733869520   0.9125835676   0.1537815781
  0.6266590921   0.1849882805   0.2294829854
  1.0011065413   0.4522089047   0.8083409309
  0.2509463035   0.7020356913   0.8117598910
 -0.0007652543   0.0477726097   0.1932595337
  0.2492245808   0.2974146725   0.1912678225
  0.7549123118   0.7063910773   0.8060416369
  0.9977245844   0.9487249514   0.8048005023
  0.7504305167   0.3001135422   0.1957486997
  0.0009626249   0.5484448051   0.1929193678
  0.4999853064   0.9533585158   0.8087553350
  0.7489861871   0.2037492857   0.8113367564
  0.5033881258   0.5509592538   0.1931650143
  0.7502099743   0.7976144848   0.1914585823
  0.2484501227   0.2005982820   0.8088162969
  0.4988953554   0.4493675092   0.8012166653
  0.2506156686   0.7992297437   0.1961924423
  0.4996928709   0.0488747839   0.1932384359
  0.0000015300   0.2491656528   0.9998051666
  0.2517940557   0.4981819498  -0.0001913871
  0.0049184798   0.3460330296   0.3660269747
  0.2475128744   0.5855565915   0.3654974081
  0.9960123703   0.1544408328   0.6343536233
  0.2566233499   0.4103657136   0.6320850111
  0.7521564019   0.4983607971   0.0019422109
  0.0019791200   0.7497108698   0.0033217568
  0.7564418912   0.5978980510   0.3665677834
  0.9946733453   0.8372245577   0.3691066308
  0.7522778328   0.3943194824   0.6305393077
  0.0148950931   0.6573162735   0.6321435221
  0.4978185882   0.7527912081   0.0038522110
  0.7485720822   0.0025975445   0.0026309165
  0.5053808546   0.8469811788   0.3679795636
  0.7451222077   0.0861897978   0.3662820431
  0.4867812043   0.6606609414   0.6315249316
  0.7494567977   0.9225510100   0.6324079263
  0.2490303758   0.0001271720   1.0003790403
  0.4985667148   0.2519137326   0.0004748066
  0.2540175895   0.0965694053   0.3666801677
  0.4944312221   0.3390776908   0.3647619608
  0.2458359956   0.9046173107   0.6345029502
  0.5020118598   0.1649272857   0.6321341634
