# Compound: Li8O4S8Fe8. Old comment: Fe2
   1.00000000000000     
     7.6897987199999998    0.0013039900000000   -0.0063390200000000
    -0.0013874400000000    7.6898096300000001   -0.0063390300000000
    -1.9167941200000000   -1.9174672699999999    6.4313753199999999
   Li   O    S    Fe
     8     4     8     8
Direct
  0.2241048400000025  0.0624182500000003  0.0000050399999978
  0.7241104100000015  0.9893717300000020  0.0000235099999983
  0.2241104100000015  0.4893717300000020  0.0000235099999983
  0.7241048400000025  0.5624182500000003  0.0000050399999978
  0.5106282799999988  0.2758895899999985  0.9999764900000017
  0.9375817399999988  0.2758951599999975  0.9999949600000022
  0.4375817399999988  0.7758951599999975  0.9999949600000022
  0.0106282799999988  0.7758895899999985  0.9999764900000017
  0.4741017500000027  0.0258964699999993  0.9999979299999993
  0.9741040400000003  0.0258987500000032  0.0000020700000007
  0.4741040400000003  0.5258987500000032  0.0000020700000007
  0.9741017500000027  0.5258964699999993  0.9999979299999993
  0.2998159500000028  0.3516226599999968  0.3028805000000006
  0.7998157199999980  0.3516216800000009  0.3028736300000006
  0.2998157199999980  0.8516216800000009  0.3028736300000006
  0.7998159500000028  0.8516226599999968  0.3028805000000006
  0.1483783199999991  0.2001842800000020  0.6971263699999994
  0.6483773400000032  0.2001840499999972  0.6971194999999994
  0.1483773400000032  0.7001840499999972  0.6971194999999994
  0.6483783199999991  0.7001842800000020  0.6971263699999994
  0.0535580999999965  0.1054201199999980  0.3179541399999977
  0.5535437099999996  0.1054160799999977  0.3179473599999980
  0.0535437099999996  0.6054160799999977  0.3179473599999980
  0.5535581000000036  0.6054201199999980  0.3179541399999977
  0.3945839200000023  0.4464562900000004  0.6820526400000020
  0.8945798800000020  0.4464419000000035  0.6820458600000023
  0.3945798800000020  0.9464418999999964  0.6820458600000023
  0.8945839200000023  0.9464562900000004  0.6820526400000020
 
  0.00000000E+00  0.00000000E+00  0.00000000E+00
  0.00000000E+00  0.00000000E+00  0.00000000E+00
  0.00000000E+00  0.00000000E+00  0.00000000E+00
  0.00000000E+00  0.00000000E+00  0.00000000E+00
  0.00000000E+00  0.00000000E+00  0.00000000E+00
  0.00000000E+00  0.00000000E+00  0.00000000E+00
  0.00000000E+00  0.00000000E+00  0.00000000E+00
  0.00000000E+00  0.00000000E+00  0.00000000E+00
  0.00000000E+00  0.00000000E+00  0.00000000E+00
  0.00000000E+00  0.00000000E+00  0.00000000E+00
  0.00000000E+00  0.00000000E+00  0.00000000E+00
  0.00000000E+00  0.00000000E+00  0.00000000E+00
  0.00000000E+00  0.00000000E+00  0.00000000E+00
  0.00000000E+00  0.00000000E+00  0.00000000E+00
  0.00000000E+00  0.00000000E+00  0.00000000E+00
  0.00000000E+00  0.00000000E+00  0.00000000E+00
  0.00000000E+00  0.00000000E+00  0.00000000E+00
  0.00000000E+00  0.00000000E+00  0.00000000E+00
  0.00000000E+00  0.00000000E+00  0.00000000E+00
  0.00000000E+00  0.00000000E+00  0.00000000E+00
  0.00000000E+00  0.00000000E+00  0.00000000E+00
  0.00000000E+00  0.00000000E+00  0.00000000E+00
  0.00000000E+00  0.00000000E+00  0.00000000E+00
  0.00000000E+00  0.00000000E+00  0.00000000E+00
  0.00000000E+00  0.00000000E+00  0.00000000E+00
  0.00000000E+00  0.00000000E+00  0.00000000E+00
  0.00000000E+00  0.00000000E+00  0.00000000E+00
  0.00000000E+00  0.00000000E+00  0.00000000E+00
