# Compound: Li8O4S8Fe8. Old comment: Fe2Li2OS2 primitive cell
  1.0000000000
  7.6897987200   0.0013039900  -0.0063390200
 -0.0013874400   7.6898096300  -0.0063390300
 -1.9167941200  -1.9174672700   6.4313753200
Li    O     S     Fe
    8     4     8     8
Direct
  0.2241048400   0.0624182500   0.0000050400
  0.7241104100   0.9893717300   0.0000235100
  0.2241104100   0.4893717300   0.0000235100
  0.7241048400   0.5624182500   0.0000050400
  0.5106282800   0.2758895900   0.9999764900
  0.9375817400   0.2758951600   0.9999949600
  0.4375817400   0.7758951600   0.9999949600
  0.0106282800   0.7758895900   0.9999764900
  0.4741017500   0.0258964700   0.9999979300
  0.9741040400   0.0258987500   0.0000020700
  0.4741040400   0.5258987500   0.0000020700
  0.9741017500   0.5258964700   0.9999979300
  0.2998159500   0.3516226600   0.3028805000
  0.7998157200   0.3516216800   0.3028736300
  0.2998157200   0.8516216800   0.3028736300
  0.7998159500   0.8516226600   0.3028805000
  0.1483783200   0.2001842800   0.6971263700
  0.6483773400   0.2001840500   0.6971195000
  0.1483773400   0.7001840500   0.6971195000
  0.6483783200   0.7001842800   0.6971263700
  0.0535581000   0.1054201200   0.3179541400
  0.5535437100   0.1054160800   0.3179473600
  0.0535437100   0.6054160800   0.3179473600
  0.5535581000   0.6054201200   0.3179541400
  0.3945839200   0.4464562900   0.6820526400
  0.8945798800   0.4464419000   0.6820458600
  0.3945798800   0.9464419000   0.6820458600
  0.8945839200   0.9464562900   0.6820526400
