# Compound: Fe24Li31O16S24. Old comment: Li4Fe3S3O2 Enum Minimum PATH2 INIT INIT
  1.0000000000
  7.8866538400  -7.9475567000   0.0601846200
  7.3433505600   7.9467915400  -2.8792872600
 -0.0478291200  -0.1071026000  10.5527142700
Fe    Li    O     S
   24    31    16    24
Direct
  0.2623687500   0.6626268800   0.6022148700
  0.2355140500   0.3349085200   0.3989362000
  0.1241320300   0.3265240400   0.8023812500
  0.3852666000   0.5834341700   0.8150846600
  0.8748726800   0.1740000100   0.1969652500
  0.1252427800   0.4214004400   0.1852329100
  0.0154280200  -0.0839932000   0.6014976600
 -0.0152225200   0.5849609800   0.3992870900
  0.8654671000   0.5724150500   0.8027032100
  0.1268217400   0.8294325000   0.8152174500
  0.6269925700   0.4262659600   0.1977526200
  0.8730004300   0.6693115700   0.1858408100
  0.7618667100   0.1624805900   0.6022424200
  0.7351247700   0.8343914600   0.3985128600
  0.6218143100   0.8162116700   0.8027684300
  0.8755539000   0.0806351600   0.8153264100
  0.3767178500   0.6759892600   0.1968725200
  0.6233674700  -0.0799768600   0.1861468800
  0.5202900500   0.4215379100   0.6039673800
  0.4839047200   0.0844125400   0.3998431300
  0.3758487500   0.0748252800   0.8023862800
  0.6296949600   0.3388205700   0.8151157400
  0.1250640500  -0.0755820800   0.1970659800
  0.3749272400   0.1713858100   0.1852872800
  0.4808355100   0.4801613400  -0.0016739300
  0.0227557700   0.5254043500  -0.0029104600
 -0.0213843800   0.3822976400   0.6076826600
  0.0210732500   0.1202042700   0.3929389600
  0.8772683100   0.3367847300   0.8470241000
  0.1225098700   0.5680522600   0.7774139400
  0.1238686600   0.1628156600   0.1550044500
  0.3780445900   0.4332986300   0.2239322100
  0.2265062500   0.7246452500   0.0036489300
  0.7647108900   0.7624787000  -0.0089097900
  0.7193641900   0.6225630500   0.6123222900
  0.7737112100   0.3709966600   0.3924445500
  0.8741551400   0.8165096600   0.7693872400
  0.8750023600   0.4114956500   0.1546386800
  0.1267427900   0.6831717900   0.2261068400
 -0.0263509700  -0.0256345400   0.0027449800
  0.5262184600   0.0222688500  -0.0026904800
  0.4801996200   0.8802777200   0.6081820700
  0.5228230100   0.6216339700   0.3914712100
  0.3751768900   0.8390882900   0.8471650000
  0.6237786300   0.0666220300   0.7772997200
  0.6235252900   0.6611562600   0.1489169000
  0.8756209700  -0.0691965800   0.2219389500
  0.7233572300   0.2274235300   0.0039436600
  0.2768952600   0.2757028900  -0.0046597800
  0.2262496300   0.1282953100   0.6071734200
  0.2728910500   0.8701022800   0.3934913000
  0.1267363200   0.0879930900   0.8447893400
  0.3727459100   0.3145454200   0.7661363600
  0.3732521900  -0.0865788400   0.1547785600
  0.6261858500   0.1840638200   0.2277318400
 -0.0029166300   0.4526521200   0.8072822600
  0.2517888500   0.7018921700   0.8100594100
  0.0003521800   0.0486529900   0.1936119400
  0.2505849100   0.2982382500   0.1917351400
  0.7542434800   0.7043864100   0.8010024000
  0.0002352700  -0.0476667100   0.8085013900
  0.7504865800   0.2990410700   0.1951065300
  0.0001314100   0.5483123600   0.1930589700
  0.5007991600  -0.0509782900   0.8074178900
  0.7492614000   0.2041665000   0.8101045000
  0.5015884800   0.5494831400   0.1922684700
  0.7486753400   0.7960745200   0.1909739800
  0.2500702800   0.2014879100   0.8051760800
  0.4946616100   0.4455153700   0.8036691100
  0.2503770400   0.7994277000   0.1947807800
  0.4998863600   0.0489218200   0.1935155400
  0.0008430100   0.2498676000  -0.0000973500
  0.2487664100   0.5004630700   0.0015973600
  0.0050906600   0.3462385600   0.3659724200
  0.2462305600   0.5871092200   0.3659095800
 -0.0049918100   0.1538722700   0.6339077400
  0.2509254100   0.4154991000   0.6326570400
  0.7525489300   0.4987497400   0.0031799000
  0.0008673700   0.7511052200   0.0023923400
  0.7552061500   0.5972970600   0.3705436500
 -0.0055809700   0.8369771500   0.3668378300
  0.7468542600   0.4005391500   0.6300622900
  0.0090422800   0.6634668800   0.6328538500
  0.4981126900   0.7534393800   0.0029541200
  0.7505058600   0.0013295700   0.0023289700
  0.5047512100   0.8468112900   0.3676384400
  0.7454149200   0.0853817700   0.3660658200
  0.4931906700   0.6544977500   0.6299360800
  0.7553719600  -0.0829858300   0.6327816500
  0.2499245100   0.0008961400   0.0001079300
  0.4999738900   0.2494704400   0.0023265000
  0.2544544300   0.0967282000   0.3670557100
  0.4948664900   0.3383463600   0.3687960900
  0.2451514300  -0.0962462700   0.6338830400
  0.5072872400   0.1593045800   0.6329915700
