# Compound: Li8Fe6S6O4. Old comment: Fe6
   1.0000000000000000     
     7.4282012618184483    0.0020899414566394   -1.3616554219976649
    -0.1374387201073954    4.0207725345104279   -0.7435943659215034
    -0.0092336963606524   -0.1578620206715295   10.4031968952053120
   Li   Fe   S    O 
     8     6     6     4
Direct
  0.9537464690953438  0.0026946748032970  0.0053893496066008
  0.5462535309046562  0.9973053251967030  0.9946106503933992
  0.3607851397699960  0.8056396440528724  0.6112792781057526
  0.1392148602300040  0.1943603559471277  0.3887207218942476
  0.2170452328931038  0.9213284364466638  0.8426568928933228
  0.6864019129165373  0.8878469829998183  0.7756939659996438
  0.2829547671068962  0.0786715635533362  0.1573431071066772
  0.8135980870834627  0.1121530170001816  0.2243060340003562
  0.9313730241405085  0.8013867730795136  0.6027735561590276
  0.5686269758594915  0.1986132269204864  0.3972264438409724
  0.4462079458462845  0.4004964461451056  0.8009928822902174
  0.9552328938379072  0.4072705479986975  0.8145410959974021
  0.0537920541537155  0.5995035538548945  0.1990071177097826
  0.5447671061620928  0.5927294520013024  0.1854589040025979
  0.2500000000000000  0.5000000000000000 -0.0000000000000000
  0.7500000000000000  0.5000000000000000 -0.0000000000000000
  0.3522228950993986  0.6843607593763004  0.3687215287526089
  0.8324089824807233  0.6839277042986883  0.3678554085973770
  0.1477771049006014  0.3156392406236996  0.6312784712473911
  0.6675910175192767  0.3160722957013116  0.6321445914026230
  0.4505142561216193  0.9032701053240411  0.8065402006480819
  0.9521268758959149  0.9037098082881609  0.8074196065763142
  0.0494857438783807  0.0967298946759589  0.1934597993519181
  0.5478731241040851  0.0962901917118390  0.1925803934236859

  0.00000000E+00  0.00000000E+00  0.00000000E+00
  0.00000000E+00  0.00000000E+00  0.00000000E+00
  0.00000000E+00  0.00000000E+00  0.00000000E+00
  0.00000000E+00  0.00000000E+00  0.00000000E+00
  0.00000000E+00  0.00000000E+00  0.00000000E+00
  0.00000000E+00  0.00000000E+00  0.00000000E+00
  0.00000000E+00  0.00000000E+00  0.00000000E+00
  0.00000000E+00  0.00000000E+00  0.00000000E+00
  0.00000000E+00  0.00000000E+00  0.00000000E+00
  0.00000000E+00  0.00000000E+00  0.00000000E+00
  0.00000000E+00  0.00000000E+00  0.00000000E+00
  0.00000000E+00  0.00000000E+00  0.00000000E+00
  0.00000000E+00  0.00000000E+00  0.00000000E+00
  0.00000000E+00  0.00000000E+00  0.00000000E+00
  0.00000000E+00  0.00000000E+00  0.00000000E+00
  0.00000000E+00  0.00000000E+00  0.00000000E+00
  0.00000000E+00  0.00000000E+00  0.00000000E+00
  0.00000000E+00  0.00000000E+00  0.00000000E+00
  0.00000000E+00  0.00000000E+00  0.00000000E+00
  0.00000000E+00  0.00000000E+00  0.00000000E+00
  0.00000000E+00  0.00000000E+00  0.00000000E+00
  0.00000000E+00  0.00000000E+00  0.00000000E+00
  0.00000000E+00  0.00000000E+00  0.00000000E+00
  0.00000000E+00  0.00000000E+00  0.00000000E+00
