# No comment
0
Gamma
            3             5             2
  0.000000000   0.000000000   0.000000000
