# Compound: Li8Fe6S6O4. Old comment: Fe6Li8O4S6
  1.0000000000
  7.4290102400   0.0022238100  -1.3610810900
 -0.1372611600   4.0155780100  -0.7426337000
 -0.0086435800  -0.1557585400  10.3999211000
Li    Fe    S     O
    8     6     6     4
Direct
  0.9537182300   0.0027655200   0.0055310400
  0.5462817700   0.9972344800   0.9944689600
  0.3604937600   0.8052758900   0.6105517700
  0.1395062400   0.1947241100   0.3894482300
  0.2170808100   0.9211931700   0.8423863600
  0.6864747600   0.8878734900   0.7757469800
  0.2829191900   0.0788068300   0.1576136400
  0.8135252400   0.1121265100   0.2242530200
  0.9312840600   0.8015071500   0.6030143100
  0.5687159400   0.1984928500   0.3969856900
  0.4467404400   0.4004949000   0.8009897900
  0.9553740400   0.4072641700   0.8145283400
  0.0532595600   0.5995051000   0.1990102100
  0.5446259600   0.5927358300   0.1854716600
  0.2500000000   0.5000000000   0.0000000000
  0.7500000000   0.5000000000   0.0000000000
  0.3520014500   0.6843247000   0.3686494100
  0.8320949900   0.6838668400   0.3677336800
  0.1479985500   0.3156753000   0.6313505900
  0.6679050100   0.3161331600   0.6322663200
  0.4505359700   0.9031293600   0.8062587100
  0.9521737900   0.9036841400   0.8073682700
  0.0494640300   0.0968706400   0.1937412900
  0.5478262100   0.0963158600   0.1926317300
