# Compound: Fe24Li31O16S24. Old comment:
   1.0000000000000000     
     7.8866538400000001   -7.9475566999999998    0.0601846200000000
     7.3433505600000002    7.9467915400000004   -2.8792872599999999
    -0.0478291200000000   -0.1071026000000000   10.5527142699999992
   Fe   Li   O    S 
    24    31    16    24
Direct
  0.2695875005190450  0.6674835167995129  0.6027825019612032
  0.2233546111186590  0.3326658973392805  0.3997397534946997
  0.1194143698599639  0.3237035964968852  0.7906877346515430
  0.3738514835317522  0.5773229658375839  0.8168418402338232
  0.8769498281070202  0.1763618338172475  0.1959362362890032
  0.1232559407401892  0.4172385472560641  0.1816262781842068
  0.0155117032792314  0.9158963577763588  0.6032049583457072
  1.0052583924569893  0.5950521114681238  0.3941800835827189
  0.8749875176773207  0.5720840157670194  0.8080158064367813
  0.1241044567060951  0.8288872318217405  0.8173756993494468
  0.6276676115870260  0.4255284556758025  0.2003813596815316
  0.8753496337597869  0.6698528663962698  0.1828276522112033
  0.7732925256181808  0.1652999358689312  0.6016196995045162
  0.7323882547796233  0.8278156683275348  0.3998961308423570
  0.6269448950200784  0.8158475119579605  0.7906859128284739
  0.8745016941169779  0.0792045270785059  0.8152978695297725
  0.3779300195240306  0.6754121495737387  0.1978870684041851
  0.6237761140449979  0.9195792123939086  0.1875717248294143
  0.5127365084029107  0.4168695544429336  0.6031180910913770
  0.4903900739384439  0.0898406256024893  0.3986516616339487
  0.3732701762653075  0.0737774697551135  0.8047982712702030
  0.6252131238658798  0.3258516591278854  0.8128039791558137
  0.1255871754929863  0.9267733942812887  0.2016905955667309
  0.3739856806011308  0.1704277723907142  0.1857073229834761
  0.4782252780060495  0.4747550159545817  0.0059614364458024
  0.0332130195600425  0.5281414524786279  0.9981995084458670
  0.8100484987801968  0.5694124720447692  0.5640496832030277
  0.0249639832612719  0.1369278903599014  0.3975501930125124
  0.8776910962360793  0.3391049792916608  0.8445993162727634
  0.1179611955863928  0.5576114678856744  0.7557434614070896
  0.1240156022999830  0.1619147830537774  0.1539368901566134
  0.3770448574338735  0.4346228477544635  0.2333238901732510
  0.2273792886719264  0.7279366870937534  0.0031143493487558
  0.7772037769078451  0.7802813353113309  0.9991498764662624
  0.7392972819546583  0.3268894198797678  0.3937915516131327
  0.6284503806503074  0.5845720876644377  0.8397559669787998
  0.8711350091562972  0.8127830245718910  0.7673678620740356
  0.8750717643606551  0.4173234204535351  0.1726451630938445
  0.1304080833546918  0.6828244859355939  0.2165086596674378
  0.9732822427138399  0.9764951258701881  0.0063997260562581
  0.5235947025065759  0.0143750163159843  0.9932041073228098
  0.4764598462725384  0.8832581886485387  0.6080568224798187
  0.5326305710998912  0.6238951295533324  0.3969799905821284
  0.3773050770661406  0.8333700561003390  0.8415610892207728
  0.6234089628803300  0.0663028140150922  0.7781522200878853
  0.6250673434025115  0.6611496994045121  0.1530449632548946
  0.8768630130608160  0.9368601565792958  0.2362894981402228
  0.7307943101588027  0.2334872891085955  0.0035469346503264
  0.2740529785157096  0.2761458663574679  0.9952973233154472
  0.2306535903331162  0.1268129814901169  0.6076323778506508
  0.2707486255032508  0.8680617754242514  0.3935239238619840
  0.1239449586080317  0.0887780941966248  0.8457496346314481
  0.3723988515705782  0.3148498494894622  0.7734781246882945
  0.3734245043277927  0.9127767088386628  0.1548357177851161
  0.6250149490979987  0.1736182841392988  0.2025315047145907
  0.0014006497343670  0.4566488092614789  0.8189093588624045
  0.2468783392299287  0.6991469609782354  0.8077560497760321
  0.0004503724585120  0.0513987360845329  0.1994354063637784
  0.2509889978591683  0.2983648136536591  0.1933850533325677
  0.7541398283924911  0.7011749720389275  0.8140070468861179
  0.9977182978200395  0.9506795684549308  0.8106689029143853
  0.7494278644342607  0.2974996915333018  0.1944035262176543
  0.0040220208200418  0.5492852700408630  0.1870321044988805
  0.5006366643402330  0.9470052363584863  0.8048750716692673
  0.7502757037582368  0.2024114590094400  0.8136400830628699
  0.5022003538827675  0.5486871787957845  0.1988674272681450
  0.7510291271949675  0.7989178769343918  0.1939550540455495
  0.2473246435983556  0.2019832450545998  0.8059822121962229
  0.4986379134382184  0.4501667859335711  0.8105557348994573
  0.2524881473491103  0.8012718141196307  0.1950884689079049
  0.4980910558228504  0.0451581597291741  0.1897648438947957
  0.9987232554331368  0.2471562504702412  1.0018365087389174
  0.2553630788813976  0.5039621428218094  0.0073609734770443
  0.0042396462694292  0.3524376177891801  0.3624683326750625
  0.2428622724661681  0.5893503040948654  0.3686482760344880
  0.9952685928521888  0.1486756779936332  0.6325103676315070
  0.2592536718956021  0.4108550193648995  0.6315397889247790
  0.7473633742556418  0.4976638185958688  0.0028341720802879
  0.0029872861512388  0.7551714165768908  0.0071769551643005
  0.7591156208574744  0.5963719706520942  0.3608508592375188
  0.9988523144649137  0.8331321188815652  0.3680516043532400
  0.7411507073292076  0.3983770134432327  0.6364102785516305
  0.0048912507870464  0.6670883493143849  0.6310488698099472
  0.4986772826087386  0.7483404383143634  0.0018527811024960
  0.7498091103553713  0.0038894729400275  0.0058412033994868
  0.5055527846182184  0.8465893265207245  0.3685719579593265
  0.7402656121080481  0.0900277412808157  0.3668716267076172
  0.4917358932700429  0.6516681060721157  0.6344033380075397
  0.7539276988834120  0.9153464369377113  0.6324184074451654
  0.2500526420646241 -0.0005495941109912  0.9990603641887101
  0.4994021519808431  0.2463883921979800  1.0009574002062804
  0.2552135630747956  0.0979607458300999  0.3678518136886511
  0.5014030240335151  0.3327107274449720  0.3668841267673978
  0.2448135707050491  0.9030510080441555  0.6349019969031776
  0.5030312368857028  0.1592078420436845  0.6348369654804420

             NaN             NaN             NaN
             NaN             NaN             NaN
             NaN             NaN             NaN
             NaN             NaN             NaN
             NaN             NaN             NaN
             NaN             NaN             NaN
             NaN             NaN             NaN
             NaN             NaN             NaN
             NaN             NaN             NaN
             NaN             NaN             NaN
             NaN             NaN             NaN
             NaN             NaN             NaN
             NaN             NaN             NaN
             NaN             NaN             NaN
             NaN             NaN             NaN
             NaN             NaN             NaN
             NaN             NaN             NaN
             NaN             NaN             NaN
             NaN             NaN             NaN
             NaN             NaN             NaN
             NaN             NaN             NaN
             NaN             NaN             NaN
             NaN             NaN             NaN
             NaN             NaN             NaN
             NaN             NaN             NaN
             NaN             NaN             NaN
             NaN             NaN             NaN
             NaN             NaN             NaN
             NaN             NaN             NaN
             NaN             NaN             NaN
             NaN             NaN             NaN
             NaN             NaN             NaN
             NaN             NaN             NaN
             NaN             NaN             NaN
             NaN             NaN             NaN
             NaN             NaN             NaN
             NaN             NaN             NaN
             NaN             NaN             NaN
             NaN             NaN             NaN
             NaN             NaN             NaN
             NaN             NaN             NaN
             NaN             NaN             NaN
             NaN             NaN             NaN
             NaN             NaN             NaN
             NaN             NaN             NaN
             NaN             NaN             NaN
             NaN             NaN             NaN
             NaN             NaN             NaN
             NaN             NaN             NaN
             NaN             NaN             NaN
             NaN             NaN             NaN
             NaN             NaN             NaN
             NaN             NaN             NaN
             NaN             NaN             NaN
             NaN             NaN             NaN
             NaN             NaN             NaN
             NaN             NaN             NaN
             NaN             NaN             NaN
             NaN             NaN             NaN
             NaN             NaN             NaN
             NaN             NaN             NaN
             NaN             NaN             NaN
             NaN             NaN             NaN
             NaN             NaN             NaN
             NaN             NaN             NaN
             NaN             NaN             NaN
             NaN             NaN             NaN
             NaN             NaN             NaN
             NaN             NaN             NaN
             NaN             NaN             NaN
             NaN             NaN             NaN
             NaN             NaN             NaN
             NaN             NaN             NaN
             NaN             NaN             NaN
             NaN             NaN             NaN
             NaN             NaN             NaN
             NaN             NaN             NaN
             NaN             NaN             NaN
             NaN             NaN             NaN
             NaN             NaN             NaN
             NaN             NaN             NaN
             NaN             NaN             NaN
             NaN             NaN             NaN
             NaN             NaN             NaN
             NaN             NaN             NaN
             NaN             NaN             NaN
             NaN             NaN             NaN
             NaN             NaN             NaN
             NaN             NaN             NaN
             NaN             NaN             NaN
             NaN             NaN             NaN
             NaN             NaN             NaN
             NaN             NaN             NaN
             NaN             NaN             NaN
             NaN             NaN             NaN
