# Compound: Fe24Li31O16S24. Old comment: Li4Fe3S3O2 Enum Minimum PATH4 INIT FRAME 04
  1.0000000000
  7.8866538400  -7.9475567000   0.0601846200
  7.3433505600   7.9467915400  -2.8792872600
 -0.0478291200  -0.1071026000  10.5527142700
Fe    Li    O     S
   24    31    16    24
Direct
  0.2649009700   0.6659742400   0.6018345133
  0.2318058367   0.3349327767   0.3985383400
  0.1206438433   0.3245838633   0.7935792600
  0.3749091533   0.5793071400   0.8158675967
  0.8761047033   0.1759002967   0.1975374933
  0.1233627767   0.4198108967   0.1840665533
  0.0150320567  -0.0860616767   0.6022513500
 -0.0168621233   0.5810806900   0.3989781000
  0.8745860267   0.5697123133   0.7889943300
  0.1252545000   0.8292312333   0.8166682933
  0.6273081300   0.4261178067   0.1987668667
  0.8737853833   0.6699154467   0.1859662500
  0.7690382267   0.1688774600   0.6015747100
  0.7353357367   0.8333306300   0.3994369667
  0.6257726700   0.8217468967   0.7984278167
  0.8756076433   0.0787468100   0.8143001333
  0.3757807900   0.6747744800   0.1980156867
  0.6243381533  -0.0798733333   0.1852623000
  0.5148630133   0.4168950600   0.6018820633
  0.4854487500   0.0853034133   0.3990570367
  0.3737928167   0.0750936467   0.8029966300
  0.6251255433   0.3289432933   0.8137457567
  0.1244285867  -0.0750851233   0.1986741267
  0.3743962800   0.1709522800   0.1850777233
  0.4768740400   0.4760628967   0.0044111567
  0.0266215733   0.5283603100  -0.0032340067
 -0.1905000067   0.5453025167   0.6065881767
  0.0210541767   0.1259551767   0.3955322200
  0.8766711933   0.3388640867   0.8414497767
  0.1206134967   0.5616253400   0.7630073933
  0.1236339200   0.1629559700   0.1549922967
  0.3766519100   0.4334785900   0.2271295700
  0.2239758733   0.7247895067   0.0044860967
  0.7780900033   0.7729150233  -0.0037818800
  0.7765280533   0.3725896300   0.3969494133
  0.6281317700   0.5858374500   0.8426224167
  0.8722044967   0.8135207800   0.7691033233
  0.8745301067   0.4121883600   0.1542130233
  0.1264363667   0.6837621333   0.2286838300
 -0.0259229467  -0.0233536733   0.0043968267
  0.5259204000   0.0228383000  -0.0043935133
  0.4772181033   0.8797296200   0.6073818233
  0.5243500400   0.6201724033   0.3947268300
  0.3768961333   0.8362495400   0.8437342200
  0.6233925000   0.0660977933   0.7716512967
  0.6240323133   0.6622831600   0.1548467233
  0.8768237467  -0.0661830733   0.2275625367
  0.7262322400   0.2277653867   0.0033285400
  0.2727466200   0.2751925900  -0.0050755667
  0.2278469000   0.1282546100   0.6066405967
  0.2723475833   0.8705531333   0.3932980133
  0.1246389867   0.0883371333   0.8434617733
  0.3723004467   0.3166650967   0.7731376467
  0.3734011733  -0.0871422800   0.1549247700
  0.6273918767   0.1837202900   0.2273303800
  0.0003206900   0.4550892033   0.8122413300
  0.2483659300   0.7009798600   0.8092914000
  0.0004429000   0.0503704400   0.1957067067
  0.2501433067   0.2979969533   0.1910372033
  0.7515200767   0.7009743300   0.8088563467
 -0.0008503367  -0.0490809567   0.8101073600
  0.7508704700   0.2993559567   0.1953290867
  0.0002823033   0.5481773567   0.1911864833
  0.5004454933  -0.0497686500   0.8055367567
  0.7498747267   0.2017116600   0.8080082000
  0.5010965000   0.5491380400   0.1958580200
  0.7500548433   0.7978709633   0.1919387833
  0.2480107767   0.2020534833   0.8048812467
  0.4988531900   0.4520946033   0.8097210433
  0.2506743067   0.7997030833   0.1956567100
  0.5001911233   0.0479745933   0.1919200867
 -0.0012877067   0.2485091400  -0.0003709300
  0.2521694733   0.5020357167   0.0039362133
  0.0057565300   0.3470395833   0.3638712433
  0.2450924267   0.5864846467   0.3673794800
 -0.0045905400   0.1492109033   0.6334978433
  0.2576761933   0.4129828800   0.6321359600
  0.7471183267   0.4977316333   0.0022676400
  0.0022330467   0.7549253000   0.0064598433
  0.7558547067   0.5965597367   0.3664336400
 -0.0055638967   0.8368368633   0.3675350600
  0.7408829467   0.4019182800   0.6343130500
  0.0068328367   0.6664910067   0.6319135300
  0.4995392133   0.7497653533   0.0009195300
  0.7502392800   0.0011847233   0.0024945367
  0.5053380800   0.8467457900   0.3674456833
  0.7448556433   0.0869590800   0.3677634133
  0.4926202100   0.6538860167   0.6343044333
  0.7547308833  -0.0869111433   0.6334893433
  0.2509577200   0.0008356067  -0.0008817800
  0.4993148867   0.2489702867  -0.0004810133
  0.2547326733   0.0969139533   0.3665390867
  0.4952414800   0.3364900833   0.3667592567
  0.2451715067  -0.0967556833   0.6336006233
  0.5028837833   0.1624792033   0.6336172667
