# Compound: Fe24Li31O16S24. Old comment:
   1.0000000000000000     
     7.8866538400000001   -7.9475566999999998    0.0601846200000000
     7.3433505600000002    7.9467915400000004   -2.8792872599999999
    -0.0478291200000000   -0.1071026000000000   10.5527142699999992
   Fe   Li   O    S 
    24    31    16    24
Direct
  0.2644147630097771  0.6619372044003191  0.6031078787553970
  0.2346463770426819  0.3341802699673177  0.3979408249998388
  0.1165571197737342  0.3218544973429058  0.8015998351461974
  0.3892932206532145  0.5845934723849446  0.8175123702228321
  0.8752938754280137  0.1731886123276328  0.1990971807747083
  0.1250374258194135  0.4207576284361644  0.1833509786129769
  0.0107688489105912  0.9114883690215763  0.6029178503617600
  0.9878239935919945  0.5834135572443252  0.3982469205112001
  0.8962084297214065  0.5849771002733222  0.7944418871241300
  0.1295450547317712  0.8320932735525075  0.8155602480109284
  0.6268996569736215  0.4253344835055919  0.2000048773907900
  0.8734752976980981  0.6685247209114599  0.1875534067214063
  0.7680696909519962  0.1645236374765647  0.6032189775633360
  0.7372048527521279  0.8372960028196990  0.3994326050687141
  0.6238319618655307  0.8169338546328242  0.8030401051374548
  0.8822647924261415  0.0915575618583656  0.8168791789054565
  0.3745179286191148  0.6728825267989944  0.1975577791699873
  0.6256897396801125  0.9196258192517345  0.1844664951226009
  0.5109432107034916  0.4113330825635348  0.5998128285252361
  0.4829720677714250  0.0812440542422987  0.3981847436931374
  0.3756579836253015  0.0757098369261981  0.8028804520843887
  0.6279496445432374  0.3212728764779438  0.8115299331305851
  0.1273951476753259  0.9257389743402749  0.1978464434222203
  0.3746474418733211  0.1696966486263534  0.1839136968869949
  0.4867083991304928  0.4793445393119938  0.0033768148647038
 -0.0063755369539227  0.4959605756947922  0.9874938369176215
  0.9638604939368437  0.3697105087542797  0.6139415884856952
  0.0207531334904825  0.1166343115780839  0.3921099891375802
  0.6607967694944734  0.5554818840271378  0.8257146900852609
  0.1415110985624901  0.5616498127253504  0.7831760666864336
  0.1231910574255236  0.1641482680154604  0.1543744688659932
  0.3765731975659563  0.4324649454307627  0.2249545713165635
  0.2245630251666906  0.7236752525418901  0.0031006223142661
  0.7650017079793743  0.7564182084263245  0.9955924223526567
  0.7281898484162772  0.6251834877219190  0.6067924069979134
  0.7747959472464435  0.3722433354124098  0.3933090588682374
  0.8685864683005713  0.8305057346810713  0.7881262985396381
  0.8735886053999827  0.4104677456202467  0.1614303036478192
  0.1242360245410955  0.6802663519588981  0.2166186159718083
  0.9760880653792071  0.9771395749397757  0.0036787864663973
  0.5303598860894659  0.0249543378975520  0.9957364286951038
  0.4770129752016463  0.8773797682504623  0.6081194424301984
  0.5218549052543789  0.6207905542928875  0.3942021242023421
  0.3777641653036598  0.8397598307940536  0.8486300890913864
  0.6259129196949073  0.0583952782527859  0.7698926927026529
  0.6231862556856005  0.6628318215515160  0.1624971774756590
  0.8773163941452808  0.9281304461148984  0.2163998581592118
  0.7328977677672825  0.2349533530491258  1.0008611252048254
  0.2749708482501591  0.2769515169690683  0.9960189043003155
  0.2289814959171536  0.1304628982923334  0.6077739315246159
  0.2694408012751802  0.8662632090492652  0.3932134225576041
  0.1285620229586146  0.0881200747718903  0.8470636372468739
  0.3709483371453111  0.3207450163806879  0.7784696689153114
  0.3761453982403162  0.9103860874003776  0.1537687655621388
  0.6272071298828520  0.1822276800344828  0.2285413215087369
  0.0086379961803755  0.4568515790540505  0.7975595963672402
  0.2557511137714771  0.7033546475596580  0.8113800105429866
  0.0015513287037982  0.0490817789792132  0.1935765195513230
  0.2498857842073817  0.2980729927034146  0.1916017303722533
  0.7572040692418800  0.6957271815129961  0.8027117160775334
  1.0014768220702901  0.9565727813409688  0.8118104351024561
  0.7506887481277084  0.2967662190498492  0.1967658945520635
  0.9987483224158561  0.5454025519649354  0.1913662389964571
  0.5013647400546892  0.9486031419382731  0.8065262716934668
  0.7440320863348746  0.1926834793520947  0.8046961229686347
  0.5000579037699121  0.5489158534178635  0.1975473808586581
  0.7497296030441144  0.7956026302276417  0.1931342935455964
  0.2476185915718410  0.2027884242743143  0.8066215496950276
  0.5063282553934335  0.4492135736092447  0.8076867142166272
  0.2514041614412816  0.7982233360260309  0.1923877763509130
  0.5008698096935168  0.0467262602609165  0.1915409933727139
  0.0020867343987590  0.2527391928639617  0.0019094932101024
  0.2536734291427019  0.5011211696087652  0.0002107020157110
  0.0054543687797862  0.3470722271162550  0.3707594250360695
  0.2439642348325241  0.5878824338296211  0.3661123801330786
  0.9970811673147367  0.1510458410819971  0.6303617063479102
  0.2654782863223824  0.4157563826772747  0.6301368201252151
  0.7464620075205914  0.4966919376978117  0.0114180844863782
  0.0000363051504371  0.7501560543540952  0.0019292404816395
  0.7567866496166509  0.5965407751718198  0.3709281700256912
  0.9966856549654532  0.8370362861419480  0.3649909970615476
  0.7422323748088142  0.3996089201202097  0.6284280568708140
  0.0154712710861688  0.6730283621353040  0.6312844892249090
  0.5060826753968733  0.7495268527144558 -0.0002153354441724
  0.7521839084533876  0.9960300928691009  0.0009631717229205
  0.5047378261132257  0.8451907551929415  0.3667425313075338
  0.7460840757142724  0.0824108045456258  0.3675832953221105
  0.4976715936561049  0.6526001037055065  0.6314298746384246
  0.7596695161756497  0.9110325463776692  0.6322005605652685
  0.2513523825776179  1.0006150144367898  1.0004388189478441
  0.4981544867227398  0.2478049110135117 -0.0008646706396141
  0.2549949335144874  0.0960635667622013  0.3660533236677033
  0.4944190773540986  0.3347188320392299  0.3645305216288135
  0.2469727919302075  0.9048972789388768  0.6349643427037676
  0.5000537071269139  0.1595509386398721  0.6327740878811092

             NaN             NaN             NaN
             NaN             NaN             NaN
             NaN             NaN             NaN
             NaN             NaN             NaN
             NaN             NaN             NaN
             NaN             NaN             NaN
             NaN             NaN             NaN
             NaN             NaN             NaN
             NaN             NaN             NaN
             NaN             NaN             NaN
             NaN             NaN             NaN
             NaN             NaN             NaN
             NaN             NaN             NaN
             NaN             NaN             NaN
             NaN             NaN             NaN
             NaN             NaN             NaN
             NaN             NaN             NaN
             NaN             NaN             NaN
             NaN             NaN             NaN
             NaN             NaN             NaN
             NaN             NaN             NaN
             NaN             NaN             NaN
             NaN             NaN             NaN
             NaN             NaN             NaN
             NaN             NaN             NaN
             NaN             NaN             NaN
             NaN             NaN             NaN
             NaN             NaN             NaN
             NaN             NaN             NaN
             NaN             NaN             NaN
             NaN             NaN             NaN
             NaN             NaN             NaN
             NaN             NaN             NaN
             NaN             NaN             NaN
             NaN             NaN             NaN
             NaN             NaN             NaN
             NaN             NaN             NaN
             NaN             NaN             NaN
             NaN             NaN             NaN
             NaN             NaN             NaN
             NaN             NaN             NaN
             NaN             NaN             NaN
             NaN             NaN             NaN
             NaN             NaN             NaN
             NaN             NaN             NaN
             NaN             NaN             NaN
             NaN             NaN             NaN
             NaN             NaN             NaN
             NaN             NaN             NaN
             NaN             NaN             NaN
             NaN             NaN             NaN
             NaN             NaN             NaN
             NaN             NaN             NaN
             NaN             NaN             NaN
             NaN             NaN             NaN
             NaN             NaN             NaN
             NaN             NaN             NaN
             NaN             NaN             NaN
             NaN             NaN             NaN
             NaN             NaN             NaN
             NaN             NaN             NaN
             NaN             NaN             NaN
             NaN             NaN             NaN
             NaN             NaN             NaN
             NaN             NaN             NaN
             NaN             NaN             NaN
             NaN             NaN             NaN
             NaN             NaN             NaN
             NaN             NaN             NaN
             NaN             NaN             NaN
             NaN             NaN             NaN
             NaN             NaN             NaN
             NaN             NaN             NaN
             NaN             NaN             NaN
             NaN             NaN             NaN
             NaN             NaN             NaN
             NaN             NaN             NaN
             NaN             NaN             NaN
             NaN             NaN             NaN
             NaN             NaN             NaN
             NaN             NaN             NaN
             NaN             NaN             NaN
             NaN             NaN             NaN
             NaN             NaN             NaN
             NaN             NaN             NaN
             NaN             NaN             NaN
             NaN             NaN             NaN
             NaN             NaN             NaN
             NaN             NaN             NaN
             NaN             NaN             NaN
             NaN             NaN             NaN
             NaN             NaN             NaN
             NaN             NaN             NaN
             NaN             NaN             NaN
             NaN             NaN             NaN
