# Compound: Fe24Li31O16S24. Old comment: Li4Fe3S3O2 Enum Minimum PATH2 INIT FRAME 05
  1.0000000000
  7.8866538400  -7.9475567000   0.0601846200
  7.3433505600   7.9467915400  -2.8792872600
 -0.0478291200  -0.1071026000  10.5527142700
Fe    Li    O     S
   24    31    16    24
Direct
  0.2646345000   0.6651232717   0.6016094700
  0.2350310917   0.3349810783   0.3992377250
  0.1168482883   0.3231017400   0.8028375417
  0.3782517917   0.5801324867   0.8151136183
  0.8765389217   0.1757759933   0.1976015250
  0.1234930133   0.4197393900   0.1857586350
  0.0124842117  -0.0863631917   0.6020391350
 -0.0151793950   0.5844167050   0.3986075400
  0.8706811000   0.5672436917   0.8028267683
  0.1257902900   0.8303699500   0.8151189583
  0.6266840950   0.4260157933   0.1970514283
  0.8733141550   0.6699357533   0.1859669767
  0.7685855017   0.1697880817   0.6040553450
  0.7343896533   0.8344822767   0.3996224517
  0.6249376100   0.8230980200   0.8024158883
  0.8792119500   0.0877571517   0.8152809350
  0.3751811917   0.6744713767   0.1969115700
  0.6248054783  -0.0787294267   0.1854683383
  0.5142369333   0.4140642433   0.6023926550
  0.4850539700   0.0847912400   0.3992427883
  0.3741847417   0.0759923300   0.8023803133
  0.6345205017   0.3346451283   0.8152268900
  0.1248415000  -0.0759947883   0.1970103217
  0.3751604650   0.1713490350   0.1852776300
  0.4774546183   0.4753832233   0.0025022617
  0.0164830533   0.5152556250  -0.0073052683
 -0.0279908300   0.3752766067   0.6114534767
  0.0225338500   0.1206788700   0.3924738683
  0.6669425850   0.5471631717   0.8469262083
  0.1238694867   0.5669931933   0.7715127650
  0.1246832517   0.1616968600   0.1549276167
  0.3769768483   0.4329381467   0.2251050100
  0.2243254417   0.7246496333   0.0029205300
  0.7744112817   0.7706117667  -0.0039127817
  0.7284987983   0.6285369750   0.6085595317
  0.7728912433   0.3710214100   0.3915382250
  0.8738005317   0.8164403517   0.7753149983
  0.8738112100   0.4110622333   0.1496952717
  0.1259158483   0.6814502150   0.2228672150
 -0.0266047617  -0.0229318400   0.0034789967
  0.5265288433   0.0248399583  -0.0041407550
  0.4778307200   0.8794108033   0.6072388533
  0.5226977517   0.6203233867   0.3931316767
  0.3763399317   0.8379364733   0.8449740500
  0.6231043300   0.0653088217   0.7691808033
  0.6231443400   0.6631598183   0.1539950083
  0.8760008867  -0.0667173967   0.2259349250
  0.7297674633   0.2299824050  -0.0004077317
  0.2734813850   0.2755424817  -0.0033283300
  0.2277184967   0.1316499517   0.6073808450
  0.2717002833   0.8702659467   0.3931506500
  0.1273790700   0.0867543567   0.8465250483
  0.3725026850   0.3172786783   0.7748930600
  0.3737891400  -0.0870846067   0.1553382017
  0.6275577167   0.1832403783   0.2244814650
  0.0030720117   0.4543205117   0.8026448683
  0.2504391000   0.7022222533   0.8087855683
  0.0004724300   0.0490630983   0.1948625983
  0.2501180433   0.2981837833   0.1927992317
  0.7512456217   0.6997148600   0.8061143667
 -0.0006303050  -0.0461794850   0.8095798150
  0.7514308883   0.2993947950   0.1929289300
 -0.0009590900   0.5466132433   0.1912122533
  0.5001393100  -0.0490073817   0.8057186733
  0.7452067500   0.1969760000   0.8054126917
  0.5005711717   0.5494651817   0.1944088367
  0.7496153400   0.7982401950   0.1929996550
  0.2473940383   0.2022937267   0.8067625550
  0.5005715350   0.4507016783   0.8086812850
  0.2504360733   0.7988872667   0.1939256300
  0.5002111433   0.0481470783   0.1921479733
  0.0020846850   0.2488290083   0.0025954833
  0.2507845850   0.5013492200   0.0025727767
  0.0052141267   0.3473545850   0.3696292283
  0.2447365600   0.5869892867   0.3666167883
 -0.0036376600   0.1514405033   0.6306095150
  0.2577185100   0.4142389417   0.6327026733
  0.7487036300   0.5024360067   0.0028983833
  0.0008568700   0.7516450617   0.0025957150
  0.7549234333   0.5966069933   0.3679656583
 -0.0048770200   0.8357904583   0.3663218133
  0.7441828017   0.4036314333   0.6299400983
  0.0063935717   0.6663845883   0.6325622417
  0.4995422733   0.7510974633   0.0004959950
  0.7498426183  -0.0004817383   0.0024922283
  0.5045543683   0.8465358650   0.3669554067
  0.7450603450   0.0878568283   0.3685305033
  0.4950953950   0.6536827333   0.6330395300
  0.7564090517  -0.0892668883   0.6331650667
  0.2505221100  -0.0000703183  -0.0000503367
  0.4986716983   0.2500635983   0.0018821833
  0.2547571217   0.0963331750   0.3660687183
  0.4962164983   0.3373570267   0.3664674067
  0.2449366133  -0.0959311200   0.6336983067
  0.5019754067   0.1639456383   0.6328594950
