# Compound: Li8O4S8Fe8. Old comment: Fe8
   1.0000000000000000     
     7.6385258859709744    0.0013578756569931   -0.0065612321600217
    -0.0013156087460801    7.6385365994833849   -0.0065612514760266
    -1.9042818371221810   -1.9049505638913886    6.3497641274868890
   Li   O    S    Fe
     8     4     8     8
Direct
  0.2242448547918141  0.0623867235908825  0.0000946100563513
  0.7242524121485761  0.9896842353479441  0.0001124963245550
  0.2242524121485761  0.4896842353479440  0.0001124963245550
  0.7242448547918139  0.5623867235908826  0.0000946100563513
  0.5103157746513829  0.2757475878517724  0.9998875036754200
  0.9376132664092108  0.2757551452085428  0.9999053899436834
  0.4376132664092110  0.7757551452085427  0.9999053899436834
  0.0103157746513831  0.7757475878517724  0.9998875036754200
  0.4740835428985478  0.0259099708021275  0.9999983070059417
  0.9740905391977960  0.0259169571013767  0.0000016929940467
  0.4740905391977961  0.5259169571013766  0.0000016929940467
  0.9740835428985478  0.5259099708021274  0.9999983070059417
  0.2998999818988120  0.3517054989931595  0.3032078503797455
  0.7998982044065341  0.3516990681554997  0.3031971411667599
  0.2998982044065343  0.8516990681554999  0.3031971411667599
  0.7998999818988122  0.8517054989931594  0.3032078503797455
  0.1483009318444270  0.2001017955935621  0.6968028588332420
  0.6482945010067627  0.2001000181012759  0.6967921496202552
  0.1482945010067628  0.7001000181012759  0.6967921496202552
  0.6483009318444268  0.7001017955935620  0.6968028588332420
  0.0533253034725797  0.1051679436523861  0.3169729614171986
  0.5533031974197171  0.1051705864939712  0.3169671117949415
  0.0533031974197172  0.6051705864939710  0.3169671117949415
  0.5533253034725797  0.6051679436523861  0.3169729614171986
  0.3948294135061119  0.4466968025801692  0.6830328882050560
  0.8948320563477264  0.4466746965273289  0.6830270385828030
  0.3948320563477266  0.9466746965273289  0.6830270385828030
  0.8948294135061119  0.9466968025801692  0.6830328882050560

  0.00000000E+00  0.00000000E+00  0.00000000E+00
  0.00000000E+00  0.00000000E+00  0.00000000E+00
  0.00000000E+00  0.00000000E+00  0.00000000E+00
  0.00000000E+00  0.00000000E+00  0.00000000E+00
  0.00000000E+00  0.00000000E+00  0.00000000E+00
  0.00000000E+00  0.00000000E+00  0.00000000E+00
  0.00000000E+00  0.00000000E+00  0.00000000E+00
  0.00000000E+00  0.00000000E+00  0.00000000E+00
  0.00000000E+00  0.00000000E+00  0.00000000E+00
  0.00000000E+00  0.00000000E+00  0.00000000E+00
  0.00000000E+00  0.00000000E+00  0.00000000E+00
  0.00000000E+00  0.00000000E+00  0.00000000E+00
  0.00000000E+00  0.00000000E+00  0.00000000E+00
  0.00000000E+00  0.00000000E+00  0.00000000E+00
  0.00000000E+00  0.00000000E+00  0.00000000E+00
  0.00000000E+00  0.00000000E+00  0.00000000E+00
  0.00000000E+00  0.00000000E+00  0.00000000E+00
  0.00000000E+00  0.00000000E+00  0.00000000E+00
  0.00000000E+00  0.00000000E+00  0.00000000E+00
  0.00000000E+00  0.00000000E+00  0.00000000E+00
  0.00000000E+00  0.00000000E+00  0.00000000E+00
  0.00000000E+00  0.00000000E+00  0.00000000E+00
  0.00000000E+00  0.00000000E+00  0.00000000E+00
  0.00000000E+00  0.00000000E+00  0.00000000E+00
  0.00000000E+00  0.00000000E+00  0.00000000E+00
  0.00000000E+00  0.00000000E+00  0.00000000E+00
  0.00000000E+00  0.00000000E+00  0.00000000E+00
  0.00000000E+00  0.00000000E+00  0.00000000E+00
