# Compound: Li8O4S8Fe8. Old comment: Fe8Li8O4S8
  1.0000000000
  7.6897987200   0.0013039900  -0.0063390200
 -0.0013874400   7.6898096300  -0.0063390300
 -1.9167941200  -1.9174672700   6.4313753200
Li    O     S     Fe
    8     4     8     8
Direct
  0.2241032600   0.0624181900   0.0000035600
  0.7241087700   0.9893689900   0.0000218800
  0.2241087700   0.4893689900   0.0000218800
  0.7241032600   0.5624181900   0.0000035600
  0.5106310200   0.2758912300   0.9999781200
  0.9375818000   0.2758967400   0.9999964400
  0.4375818000   0.7758967400   0.9999964400
  0.0106310200   0.7758912300   0.9999781200
  0.4741020000   0.0258962000   0.9999979300
  0.9741043100   0.0258985000   0.0000020700
  0.4741043100   0.5258985000   0.0000020700
  0.9741020000   0.5258962000   0.9999979300
  0.2998103900   0.3516171700   0.3028586400
  0.7998101800   0.3516161900   0.3028517700
  0.2998101800   0.8516161900   0.3028517700
  0.7998103900   0.8516171700   0.3028586400
  0.1483838100   0.2001898200   0.6971482300
  0.6483828300   0.2001896100   0.6971413600
  0.1483828300   0.7001896100   0.6971413600
  0.6483838100   0.7001898200   0.6971482300
  0.0535652400   0.1054272700   0.3179824600
  0.5535508600   0.1054232200   0.3179756600
  0.0535508600   0.6054232200   0.3179756600
  0.5535652400   0.6054272700   0.3179824600
  0.3945767800   0.4464491400   0.6820243400
  0.8945727300   0.4464347600   0.6820175400
  0.3945727300   0.9464347600   0.6820175400
  0.8945767800   0.9464491400   0.6820243400
