# Compound: Fe24Li31O16S24. Old comment: Li4Fe3S3O2 Enum Minimum PATH3 INIT INIT
  1.0000000000
  7.8866538400  -7.9475567000   0.0601846200
  7.3433505600   7.9467915400  -2.8792872600
 -0.0478291200  -0.1071026000  10.5527142700
Fe    Li    O     S
   24    31    16    24
Direct
  0.2618901700   0.6645173800   0.6021885400
  0.2354074100   0.3352220700   0.3988609000
  0.1230163900   0.3258716100   0.8029712600
  0.3749641800   0.5792406800   0.8141152900
  0.8742674300   0.1751995100   0.1991361400
  0.1243676900   0.4215384900   0.1854554000
  0.0159956900  -0.0836327900   0.6017556900
 -0.0202694100   0.5848656100   0.3986157600
  0.8693539200   0.5741056800   0.7889971700
  0.1250124800   0.8294607000   0.8167386400
  0.6270148700   0.4262500600   0.1966481400
  0.8727631300   0.6688735400   0.1833429900
  0.7645887400   0.1628222000   0.6025258700
  0.7348815100   0.8290608500   0.3993022000
  0.6272947700   0.8174533500   0.7890715300
  0.8754718100   0.0792615300   0.8166501600
  0.3774316300   0.6759873200   0.1995051200
  0.6244510200  -0.0796430000   0.1871803600
  0.5211331800   0.4218095600   0.6012351900
  0.4856132100   0.0854257400   0.3994036300
  0.3752060500   0.0738620600   0.8030708700
  0.6257864700   0.3286374600   0.8131652900
  0.1249729400  -0.0757921700   0.1971731000
  0.3742617000   0.1699852200   0.1843344500
  0.4770742800   0.4778079500   0.0027135900
  0.0217505200   0.5255653900  -0.0054475200
 -0.0223106000   0.3774603700   0.6060921300
  0.0222638900   0.1204033900   0.3931028200
  0.8738971200   0.3389438800   0.8433183300
  0.1217616300   0.5668875200   0.7743082400
  0.1233745600   0.1630063900   0.1548873700
  0.3775565500   0.4336088700   0.2275567500
  0.2267065200   0.7252451600   0.0052433700
  0.7787914500   0.7794810500  -0.0019602600
  0.7703283400   0.3783215300   0.3965890200
  0.6280041700   0.5887198900   0.8403812500
  0.8701817700   0.8093581400   0.7580440500
  0.8737350600   0.4129833400   0.1551315900
  0.1262710400   0.6833218800   0.2268830900
 -0.0274029200  -0.0254007000   0.0041053400
  0.5277776400   0.0196748400  -0.0046306000
  0.4756745100   0.8791965000   0.6066960900
  0.5292574000   0.6195415100   0.3969880300
  0.3782474800   0.8344137000   0.8436294200
  0.6233895800   0.0655835400   0.7745023500
  0.6249112200   0.6617660000   0.1540210900
  0.8764814800  -0.0660785400   0.2292182700
  0.7248741800   0.2276857200   0.0044650800
  0.2747207600   0.2743219700  -0.0041932400
  0.2280860400   0.1301134500   0.6076215300
  0.2717791700   0.8702439400   0.3934670000
  0.1262311000   0.0871893200   0.8437158600
  0.3734622400   0.3164955500   0.7706824400
  0.3735920400  -0.0873756600   0.1552466500
  0.6268818700   0.1836771900   0.2265415800
 -0.0029456900   0.4524913100   0.8044325100
  0.2481961100   0.7021595800   0.8112428400
  0.0005345800   0.0499093600   0.1954181200
  0.2502359800   0.2982158600   0.1919355300
  0.7519468900   0.7063044300   0.8159543200
 -0.0014391100  -0.0494203900   0.8085061600
  0.7504044900   0.3006229700   0.1959049600
  0.0000598900   0.5479082100   0.1907873500
  0.5014424600  -0.0516782700   0.8051538300
  0.7494682800   0.2010969400   0.8108795000
  0.5010912400   0.5487249400   0.1951282200
  0.7502875700   0.7982581300   0.1915140900
  0.2499864300   0.2012153700   0.8055289000
  0.5000872900   0.4519504500   0.8065543300
  0.2510913400   0.7994213300   0.1963424900
  0.4999553500   0.0476023000   0.1922460000
  0.0010296600   0.2508871800  -0.0011028500
  0.2492469000   0.4990100900  -0.0009637400
  0.0045052300   0.3469111700   0.3662278500
  0.2454652800   0.5863789200   0.3661523400
 -0.0043892400   0.1528018100   0.6334003500
  0.2522654400   0.4134029400   0.6334485600
  0.7475852200   0.4972731000   0.0000642600
  0.0036013000   0.7536914200   0.0066375300
  0.7562326400   0.5969961900   0.3627014800
 -0.0051410300   0.8365096700   0.3678441400
  0.7452010600   0.3974222800   0.6337946500
  0.0102494900   0.6630337800   0.6315045700
  0.4967434400   0.7479211000   0.0033996900
  0.7516009000   0.0054979700   0.0064676100
  0.5056486000   0.8463246900   0.3681933500
  0.7443357100   0.0870680400   0.3673495800
  0.4886903300   0.6541190900   0.6348513000
  0.7553762900  -0.0819116300   0.6320960900
  0.2509328400   0.0007129200  -0.0004187600
  0.4995900600   0.2489989200   0.0002892000
  0.2551395600   0.0968975000   0.3671207800
  0.4951194200   0.3369405100   0.3679815700
  0.2444686600  -0.0961571100   0.6338154500
  0.5045272300   0.1608026900   0.6340767400
