# Compound: Li18O18S27Fe36. Old comment: Fe4Li2O2S3 supercell_14
  1.0000000000
 11.7772697400   0.0084887100   0.0692331600
 -0.0302824800  11.7772338600   0.0692331600
 -2.0200023100  -2.0266632000  10.1857462200
Li    O     S     Fe
   18    18    27    36
Direct
  0.2022493900   0.2420695200   0.8318341900
  0.5355827233   0.2420695200   0.8318341900
  0.8689160567   0.2420695200   0.8318341900
  0.2022493900   0.5754028533   0.8318341900
  0.5355827233   0.5754028533   0.8318341900
  0.8689160567   0.5754028533   0.8318341900
  0.2022493900   0.9087361867   0.8318341900
  0.5355827233   0.9087361867   0.8318341900
  0.8689160567   0.9087361867   0.8318341900
  0.0912638133   0.1310839433   0.1681658100
  0.4245971467   0.1310839433   0.1681658100
  0.7579304800   0.1310839433   0.1681658100
  0.0912638133   0.4644172767   0.1681658100
  0.4245971467   0.4644172767   0.1681658100
  0.7579304800   0.4644172767   0.1681658100
  0.0912638133   0.7977506100   0.1681658100
  0.4245971467   0.7977506100   0.1681658100
  0.7579304800   0.7977506100   0.1681658100
  0.2631100733   0.1359881600   0.1968608900
  0.5964434067   0.1359881600   0.1968608900
  0.9297767400   0.1359881600   0.1968608900
  0.2631100733   0.4693214933   0.1968608900
  0.5964434067   0.4693214933   0.1968608900
  0.9297767400   0.4693214933   0.1968608900
  0.2631100733   0.8026548267   0.1968608900
  0.5964434067   0.8026548267   0.1968608900
  0.9297767400   0.8026548267   0.1968608900
  0.1973451733   0.0702232600   0.8031391100
  0.5306785067   0.0702232600   0.8031391100
  0.8640118400   0.0702232600   0.8031391100
  0.1973451733   0.4035565933   0.8031391100
  0.5306785067   0.4035565933   0.8031391100
  0.8640118400   0.4035565933   0.8031391100
  0.1973451733   0.7368899267   0.8031391100
  0.5306785067   0.7368899267   0.8031391100
  0.8640118400   0.7368899267   0.8031391100
  0.0016902683   0.2065729633   0.6292033500
  0.3358726800   0.2065729633   0.6292033500
  0.6692060133   0.2065729633   0.6292033500
  0.0025393467   0.5399062967   0.6292033500
  0.3358726800   0.5399062967   0.6292033500
  0.6692060133   0.5399062967   0.6292033500
  0.0025393467   0.8732396300   0.6292033500
  0.3358726800   0.8732396300   0.6292033500
  0.6692060133   0.8732396300   0.6292033500
  0.1267603700   0.3307939867   0.3707966500
  0.4600937033   0.3307939867   0.3707966500
  0.7934270367   0.3307939867   0.3707966500
  0.1267603700   0.6641273200   0.3707966500
  0.4600937033   0.6641273200   0.3707966500
  0.7934270367   0.6641273200   0.3707966500
  0.1267603700   0.9974606533   0.3707966500
  0.4600937033   0.9974606533   0.3707966500
  0.7934270367   0.9974606533   0.3707966500
  0.0635089867   0.2698243467   1.0000000000
  0.3968423200   0.2698243467   1.0000000000
  0.7301756533   0.2698243467   1.0000000000
  0.0635089867   0.6031576800   1.0000000000
  0.3968423200   0.6031576800   1.0000000000
  0.7301756533   0.6031576800   1.0000000000
  0.0635089867   0.9364910133   1.0000000000
  0.3968423200   0.9364910133   1.0000000000
  0.7301756533   0.9364910133   1.0000000000
  0.2902727400   0.1721494000   0.3935217000
  0.6236060733   0.1721494000   0.3935217000
  0.9569394067   0.1721494000   0.3935217000
  0.2902727400   0.5054827333   0.3935217000
  0.6236060733   0.5054827333   0.3935217000
  0.9569394067   0.5054827333   0.3935217000
  0.2902727400   0.8388160667   0.3935217000
  0.6236060733   0.8388160667   0.3935217000
  0.9569394067   0.8388160667   0.3935217000
  0.1611839333   0.0430605933   0.6064783000
  0.4945172667   0.0430605933   0.6064783000
  0.8278506000   0.0430605933   0.6064783000
  0.1611839333   0.3763939267   0.6064783000
  0.4945172667   0.3763939267   0.6064783000
  0.8278506000   0.3763939267   0.6064783000
  0.1611839333   0.7097272600   0.6064783000
  0.4945172667   0.7097272600   0.6064783000
  0.8278506000   0.7097272600   0.6064783000
  0.0376139067   0.0773130667   0.8454277700
  0.3709472400   0.0773130667   0.8454277700
  0.7042805733   0.0773130667   0.8454277700
  0.0376139067   0.4106464000   0.8454277700
  0.3709472400   0.4106464000   0.8454277700
  0.7042805733   0.4106464000   0.8454277700
  0.0376139067   0.7439797333   0.8454277700
  0.3709472400   0.7439797333   0.8454277700
  0.7042805733   0.7439797333   0.8454277700
  0.2560202667   0.2957194267   0.1545722300
  0.5893536000   0.2957194267   0.1545722300
  0.9226869333   0.2957194267   0.1545722300
  0.2560202667   0.6290527600   0.1545722300
  0.5893536000   0.6290527600   0.1545722300
  0.9226869333   0.6290527600   0.1545722300
  0.2560202667   0.9623860933   0.1545722300
  0.5893536000   0.9623860933   0.1545722300
  0.9226869333   0.9623860933   0.1545722300
