# Compound: Li2O2S2Fe3. Old comment: LFS
   1.00000000000000     
     3.7825715949212806    0.0000000000000000    0.0000000000000000
     0.0000000000000000    5.6112618986801017    0.0667433279753555
     0.0000000000000000   -0.1424780157929900    5.6098498054845853
   Li   O    S    Fe
     2     2     2     3
Direct
  0.3155729292218472  0.5000000000000000 -0.0000000000000000
  0.3155729292218472 -0.0000000000000000  0.5000000000000000
  0.3184450967648608  0.2499722626253461  0.7500277373746513
  0.3184450967648608  0.7500277373746540  0.2499722626253487
  0.8185618063404675  0.2364877512768258  0.2364877512768242
  0.8185618063404675  0.7635122487231742  0.7635122487231758
  0.8184131256245034  0.6785379017363989  0.3214620982636028
  0.8184131256245034  0.3214620982636011  0.6785379017363972
  0.3216620940966409 -0.0000000000000000 -0.0000000000000000
 
  0.00000000E+00  0.00000000E+00  0.00000000E+00
  0.00000000E+00  0.00000000E+00  0.00000000E+00
  0.00000000E+00  0.00000000E+00  0.00000000E+00
  0.00000000E+00  0.00000000E+00  0.00000000E+00
  0.00000000E+00  0.00000000E+00  0.00000000E+00
  0.00000000E+00  0.00000000E+00  0.00000000E+00
  0.00000000E+00  0.00000000E+00  0.00000000E+00
  0.00000000E+00  0.00000000E+00  0.00000000E+00
  0.00000000E+00  0.00000000E+00  0.00000000E+00
