# Compound: Fe24Li31O16S24. Old comment:
   1.0000000000000000     
     7.8866538400000001   -7.9475566999999998    0.0601846200000000
     7.3433505600000002    7.9467915400000004   -2.8792872599999999
    -0.0478291200000000   -0.1071026000000000   10.5527142699999992
   Fe   Li   O    S 
    24    31    16    24
Direct
  0.2664063667347809  0.6667026668307598  0.6016575036066399
  0.2300050492010244  0.3347881270497679  0.3983770623693487
  0.1194575720845572  0.3239399892335822  0.7888832607350919
  0.3748816376952505  0.5793403703580911  0.8167437544213541
  0.8770233369195040  0.1762506867980347  0.1967381741587680
  0.1228603156719646  0.4189471048912192  0.1833721288429379
  0.0145502406499007  0.9127238821270222  0.6024991831943136
  0.9848415241691938  0.5791882316324354  0.3991592726161377
  0.8772020787833147  0.5675156318873015  0.7889929129907786
  0.1253755091798593  0.8291165005110241  0.8166331226431134
  0.6274547609657906  0.4260516815400950  0.1998262260019857
  0.8742965146264053  0.6704364040911239  0.1872778830631205
  0.7712629680027840  0.1719050890426438  0.6010991290391368
  0.7355628541981369  0.8354655174231786  0.3995043545782899
  0.6250116228435696  0.8238936717749601  0.8031059624412084
  0.8756755631494485  0.0784894462050850  0.8131251214225828
  0.3749553675636702  0.6741680594387272  0.1972709700276505
  0.6242817197002274  0.9200114997633277  0.1843032711690088
  0.5117279313877520  0.4144378113084960  0.6022054961591250
  0.4853665172497469  0.0852422538761703  0.3988837371530981
  0.3730861954291884  0.0757094393746923  0.8029595077296678
  0.6247950845343320  0.3290962058866564  0.8140359899015905
  0.1241564132907131  0.9252684049490728  0.1994246370335333
  0.3744635659094600  0.1714358110001605  0.1854493556081317
  0.4767739203764161  0.4751903676482522  0.0052599358403022
  0.0290571017121949  0.5297577663391970  0.9978727466355307
  0.7254052882137023  0.6292235894655571  0.6068362019404464
  0.0204493224300431  0.1287310745049063  0.3967469231829186
  0.8780582314857220  0.3388241850654823  0.8405154973988203
  0.1200394284515713  0.5589942541948744  0.7573569746632822
  0.1237636000237344  0.1629307592974070  0.1550447565885327
  0.3761995862856489  0.4334134458498530  0.2269159766624913
  0.2226105514487449  0.7245616761707695  0.0041074601514890
  0.7777392788894474  0.7696320102674297  0.9953073053174702
  0.7796279123971361  0.3697236760445454  0.3971296095248512
  0.6281955733260811  0.5843962268109313  0.8437429950124627
  0.8732158607208731  0.8156020967758267  0.7746329645310615
  0.8749276306022822  0.4117908705334600  0.1537537380526102
  0.1265190261103159  0.6839822580999784  0.2295842030750422
  0.9748170378836303  0.9776698353167590  0.0045425652356729
  0.5249917824995671  0.0244200339174243  0.9957250265490416
  0.4779898966097099  0.8799961810441617  0.6077246884832742
  0.5218963583969430  0.6204878470968227  0.3935962270674098
  0.3762204553135999  0.8371674584076449  0.8437866208294574
  0.6233939585415414  0.0663549207557880  0.7702257667466706
  0.6235928640132953  0.6625417382633999  0.1552595412244997
  0.8769948762996337  0.9337646564805667  0.2267346747985915
  0.7269112688107857  0.2278052242398453  0.0027602680819504
  0.2717595487198327  0.2756278993628771  0.9944832744992498
  0.2277273285930693  0.1273251855297531  0.6061501340231189
  0.2726317901928408  0.8707077274867795  0.3932135169813225
  0.1238429263896613  0.0889110429840568  0.8433347338493077
  0.3717195460825650  0.3167498721937745  0.7743652462624249
  0.3733057441427133  0.9129744121560783  0.1547638349305391
  0.6276468824957580  0.1837418384770780  0.2277247758527665
  0.0019538763546564  0.4563881478174128  0.8161457367366609
  0.2484508361194238  0.7003900027565222  0.8083156846773817
  0.0003970561103326  0.0506009817250419  0.1958509992108144
  0.2500969685589723  0.2978875021593417  0.1905880376263160
  0.7513066662978183  0.6983092813626746  0.8053073591105768
  0.9994440471889455  0.9510887569615132  0.8109079625277417
  0.7511034578126831  0.2987224507081486  0.1950411527948140
  0.0003935052258972  0.5483119306590468  0.1913860470928998
  0.4999470061616646  0.9511861617661953  0.8057282167813967
  0.7500779530417351  0.2020190227274764  0.8065725545126672
  0.5010991292145368  0.5493445881807726  0.1962229179115378
  0.7499384769247822  0.7976773823502303  0.1921511297592018
  0.2470229452861084  0.2024725352701856  0.8045574240431678
  0.4982361376668502  0.4521666845409280  0.8113044041174934
  0.2504657933027207  0.7998439613725761  0.1953138155647577
  0.5003090135752664  0.0481607434470840  0.1917571257226378
  0.9975536129329337  0.2473201159388106  0.9999950255840917
  0.2536307598924036  0.5035485303328663  0.0063861853520332
  0.0063821825482146  0.3471037876009788  0.3626929388208144
  0.2449059999789324  0.5865375085926317  0.3679930468179121
  0.9953088061760414  0.1474154526841083  0.6335465850543711
  0.2603815730283177  0.4127728461764720  0.6314796591198352
  0.7468848794109721  0.4979609046727985  0.0033693347488292
  0.0015489215127108  0.7555422391068078  0.0063710031324440
  0.7556657399140975  0.5963415059389481  0.3682997215857240
  0.9942246729810991  0.8370004585743308  0.3673805213250627
  0.7387238864470492  0.4041662789127197  0.6345722453815853
  0.0051245087472570  0.6682196232961607  0.6321180066614652
  0.5009370951639612  0.7506874794757612  0.9996794531118104
  0.7495584747925256  0.9990280995890658  0.0005079982493164
  0.5051828216764189  0.8469563423436860  0.3670718459519240
  0.7451156132485582  0.0869045989995784  0.3679703316564302
  0.4945851462426293  0.6537694772754938  0.6340310015929014
  0.7544081802185548  0.9105890986527924  0.6341859731574275
  0.2509701606198003  0.0008969466551857  0.9988867124477461
  0.4991773003057844  0.2489559669520105  0.9991338845848740
  0.2545292313910327  0.0969221764626486  0.3662482353367116
  0.4953025052111298  0.3362648697115272  0.3661480970377318
  0.2455229308204601  0.9029450283440918  0.6334932136556249
  0.5020620604970814  0.1633174621304798  0.6333875305440458

  0.00000000E+00  0.00000000E+00  0.00000000E+00
  0.00000000E+00  0.00000000E+00  0.00000000E+00
  0.00000000E+00  0.00000000E+00  0.00000000E+00
  0.00000000E+00  0.00000000E+00  0.00000000E+00
  0.00000000E+00  0.00000000E+00  0.00000000E+00
  0.00000000E+00  0.00000000E+00  0.00000000E+00
  0.00000000E+00  0.00000000E+00  0.00000000E+00
  0.00000000E+00  0.00000000E+00  0.00000000E+00
  0.00000000E+00  0.00000000E+00  0.00000000E+00
  0.00000000E+00  0.00000000E+00  0.00000000E+00
  0.00000000E+00  0.00000000E+00  0.00000000E+00
  0.00000000E+00  0.00000000E+00  0.00000000E+00
  0.00000000E+00  0.00000000E+00  0.00000000E+00
  0.00000000E+00  0.00000000E+00  0.00000000E+00
  0.00000000E+00  0.00000000E+00  0.00000000E+00
  0.00000000E+00  0.00000000E+00  0.00000000E+00
  0.00000000E+00  0.00000000E+00  0.00000000E+00
  0.00000000E+00  0.00000000E+00  0.00000000E+00
  0.00000000E+00  0.00000000E+00  0.00000000E+00
  0.00000000E+00  0.00000000E+00  0.00000000E+00
  0.00000000E+00  0.00000000E+00  0.00000000E+00
  0.00000000E+00  0.00000000E+00  0.00000000E+00
  0.00000000E+00  0.00000000E+00  0.00000000E+00
  0.00000000E+00  0.00000000E+00  0.00000000E+00
  0.00000000E+00  0.00000000E+00  0.00000000E+00
  0.00000000E+00  0.00000000E+00  0.00000000E+00
  0.00000000E+00  0.00000000E+00  0.00000000E+00
  0.00000000E+00  0.00000000E+00  0.00000000E+00
  0.00000000E+00  0.00000000E+00  0.00000000E+00
  0.00000000E+00  0.00000000E+00  0.00000000E+00
  0.00000000E+00  0.00000000E+00  0.00000000E+00
  0.00000000E+00  0.00000000E+00  0.00000000E+00
  0.00000000E+00  0.00000000E+00  0.00000000E+00
  0.00000000E+00  0.00000000E+00  0.00000000E+00
  0.00000000E+00  0.00000000E+00  0.00000000E+00
  0.00000000E+00  0.00000000E+00  0.00000000E+00
  0.00000000E+00  0.00000000E+00  0.00000000E+00
  0.00000000E+00  0.00000000E+00  0.00000000E+00
  0.00000000E+00  0.00000000E+00  0.00000000E+00
  0.00000000E+00  0.00000000E+00  0.00000000E+00
  0.00000000E+00  0.00000000E+00  0.00000000E+00
  0.00000000E+00  0.00000000E+00  0.00000000E+00
  0.00000000E+00  0.00000000E+00  0.00000000E+00
  0.00000000E+00  0.00000000E+00  0.00000000E+00
  0.00000000E+00  0.00000000E+00  0.00000000E+00
  0.00000000E+00  0.00000000E+00  0.00000000E+00
  0.00000000E+00  0.00000000E+00  0.00000000E+00
  0.00000000E+00  0.00000000E+00  0.00000000E+00
  0.00000000E+00  0.00000000E+00  0.00000000E+00
  0.00000000E+00  0.00000000E+00  0.00000000E+00
  0.00000000E+00  0.00000000E+00  0.00000000E+00
  0.00000000E+00  0.00000000E+00  0.00000000E+00
  0.00000000E+00  0.00000000E+00  0.00000000E+00
  0.00000000E+00  0.00000000E+00  0.00000000E+00
  0.00000000E+00  0.00000000E+00  0.00000000E+00
  0.00000000E+00  0.00000000E+00  0.00000000E+00
  0.00000000E+00  0.00000000E+00  0.00000000E+00
  0.00000000E+00  0.00000000E+00  0.00000000E+00
  0.00000000E+00  0.00000000E+00  0.00000000E+00
  0.00000000E+00  0.00000000E+00  0.00000000E+00
  0.00000000E+00  0.00000000E+00  0.00000000E+00
  0.00000000E+00  0.00000000E+00  0.00000000E+00
  0.00000000E+00  0.00000000E+00  0.00000000E+00
  0.00000000E+00  0.00000000E+00  0.00000000E+00
  0.00000000E+00  0.00000000E+00  0.00000000E+00
  0.00000000E+00  0.00000000E+00  0.00000000E+00
  0.00000000E+00  0.00000000E+00  0.00000000E+00
  0.00000000E+00  0.00000000E+00  0.00000000E+00
  0.00000000E+00  0.00000000E+00  0.00000000E+00
  0.00000000E+00  0.00000000E+00  0.00000000E+00
  0.00000000E+00  0.00000000E+00  0.00000000E+00
  0.00000000E+00  0.00000000E+00  0.00000000E+00
  0.00000000E+00  0.00000000E+00  0.00000000E+00
  0.00000000E+00  0.00000000E+00  0.00000000E+00
  0.00000000E+00  0.00000000E+00  0.00000000E+00
  0.00000000E+00  0.00000000E+00  0.00000000E+00
  0.00000000E+00  0.00000000E+00  0.00000000E+00
  0.00000000E+00  0.00000000E+00  0.00000000E+00
  0.00000000E+00  0.00000000E+00  0.00000000E+00
  0.00000000E+00  0.00000000E+00  0.00000000E+00
  0.00000000E+00  0.00000000E+00  0.00000000E+00
  0.00000000E+00  0.00000000E+00  0.00000000E+00
  0.00000000E+00  0.00000000E+00  0.00000000E+00
  0.00000000E+00  0.00000000E+00  0.00000000E+00
  0.00000000E+00  0.00000000E+00  0.00000000E+00
  0.00000000E+00  0.00000000E+00  0.00000000E+00
  0.00000000E+00  0.00000000E+00  0.00000000E+00
  0.00000000E+00  0.00000000E+00  0.00000000E+00
  0.00000000E+00  0.00000000E+00  0.00000000E+00
  0.00000000E+00  0.00000000E+00  0.00000000E+00
  0.00000000E+00  0.00000000E+00  0.00000000E+00
  0.00000000E+00  0.00000000E+00  0.00000000E+00
  0.00000000E+00  0.00000000E+00  0.00000000E+00
  0.00000000E+00  0.00000000E+00  0.00000000E+00
  0.00000000E+00  0.00000000E+00  0.00000000E+00
