# Compound: Fe24Li31O16S24. Old comment: Fe24Li31O16S24
  1.0000000000
  7.8866538400  -7.9475567000   0.0601846200
  7.3433505600   7.9467915400  -2.8792872600
 -0.0478291200  -0.1071026000  10.5527142700
Fe    Li    O     S
   24    31    16    24
Direct
  0.2663670600   0.6666682900   0.6016537300
  0.2299797400   0.3347964300   0.3984053200
  0.1194793900   0.3239349900   0.7888298700
  0.3748898100   0.5793656600   0.8167287200
  0.8770326900   0.1762535400   0.1967338800
  0.1228874100   0.4189060900   0.1834213600
  0.0145472200   0.9127078900   0.6024782900
  0.9848418200   0.5791583500   0.3992178000
  0.8772259600   0.5675124200   0.7889273400
  0.1254337700   0.8290949800   0.8166420600
  0.6274414000   0.4260834500   0.1998207100
  0.8741910700   0.6705366700   0.1873068700
  0.7712425400   0.1718680200   0.6010762600
  0.7355521100   0.8354512000   0.3994825200
  0.6249392500   0.8239804900   0.8030770400
  0.8756646300   0.0784710900   0.8131329600
  0.3749817400   0.6741851900   0.1972991000
  0.6242731100   0.9200174500   0.1843137800
  0.5117229800   0.4144524500   0.6021916600
  0.4853579500   0.0852421200   0.3988943700
  0.3731670300   0.0756274400   0.8029494300
  0.6247688100   0.3291204500   0.8140834000
  0.1241955400   0.9252870300   0.1994225200
  0.3745152600   0.1714024100   0.1854545600
  0.4767743500   0.4751900800   0.0052534000
  0.0290370300   0.5297380800  -0.0021098200
  0.7254477100   0.6291885400   0.6068131400
  0.0204235800   0.1287173500   0.3967552800
  0.8780464600   0.3387910300   0.8404209000
  0.1200642900   0.5590205800   0.7573668700
  0.1237644000   0.1629391000   0.1550598800
  0.3762221600   0.4334135900   0.2269339200
  0.2225954100   0.7245599200   0.0041111800
  0.7777504700   0.7696515100   0.9953471400
  0.7796054600   0.3696942900   0.3971394000
  0.6282044600   0.5843826500   0.8437235400
  0.8732333700   0.8155958700   0.7745771800
  0.8749210800   0.4117855400   0.1537859100
  0.1265217500   0.6839920800   0.2295699400
  0.9748168500   0.9776732600   0.0045162600
  0.5249484000   0.0243889700   0.9957008300
  0.4779918000   0.8800117900   0.6077191600
  0.5218877400   0.6204553500   0.3935794500
  0.3762440500   0.8371926200   0.8437369300
  0.6233743600   0.0663398100   0.7702869400
  0.6235946600   0.6625579700   0.1552585400
  0.8769789300   0.9337416400   0.2267336500
  0.7269467900   0.2278084700   0.0027368200
  0.2717639800   0.2756278200   0.9945088700
  0.2276937700   0.1273414600   0.6061397400
  0.2725780400   0.8706700300   0.3932079000
  0.1238470200   0.0889129800   0.8433273600
  0.3717249100   0.3167609400   0.7743217600
  0.3733268600   0.9129925100   0.1547826400
  0.6276170200   0.1837267500   0.2277243900
  0.0019630600   0.4563969500   0.8161951000
  0.2484296200   0.7004090200   0.8083532200
  0.0003854200   0.0506408400   0.1958196300
  0.2500615000   0.2979170000   0.1905891000
  0.7513858100   0.6982870200   0.8052892600
 -0.0005876600   0.9511302100   0.8109819600
  0.7511307500   0.2987036600   0.1950232400
  0.0004133100   0.5482723300   0.1914149700
  0.4999566500   0.9512000000   0.8057477600
  0.7501003100   0.2020032400   0.8066332900
  0.5011057900   0.5493305300   0.1962009700
  0.7499769800   0.7976147800   0.1921101700
  0.2469594000   0.2025508700   0.8045736900
  0.4982269600   0.4521670700   0.8113543900
  0.2504721700   0.7998422500   0.1952900800
  0.5002775100   0.0481795500   0.1917071700
 -0.0024593000   0.2472983400  -0.0000004400
  0.2536376700   0.5035550700   0.0063990000
  0.0063756200   0.3471107500   0.3626311100
  0.2448869600   0.5865178100   0.3679743700
  0.9952940400   0.1474042500   0.6336135500
  0.2604191900   0.4128101300   0.6314878000
  0.7468440900   0.4979241900   0.0033613800
  0.0015635100   0.7555460000   0.0063519600
  0.7556587400   0.5963188600   0.3682864700
  0.9942471400   0.8369939900   0.3674160400
  0.7387084800   0.4041707500   0.6346194100
  0.0051529600   0.6682667000   0.6321445900
  0.5009291300   0.7506950800  -0.0003100500
  0.7495733100  -0.0009596700   0.0004774000
  0.5051761500   0.8469573100   0.3670505700
  0.7451137300   0.0869252800   0.3679862800
  0.4945604300   0.6537519800   0.6340084000
  0.7544526300   0.9106358600   0.6342073100
  0.2509764600   0.0008925500  -0.0011077500
  0.4991841400   0.2489665600  -0.0008591000
  0.2545498700   0.0969086700   0.3662194300
  0.4953048200   0.3362794000   0.3661365200
  0.2455069400   0.9029199800   0.6334933100
  0.5020954800   0.1633397100   0.6333811100
