# Compound: Fe32Li31O16S32. Old comment:
   1.0000000000000000     
     7.6911861600000000   -7.6885056399999998    0.0000000100000000
     7.6884112800000004    7.6911136200000003   -0.0126780500000000
    -3.8335882400000001   -3.8349345399999999   12.8627506399999998
   Fe   Li   O    S 
    32    31    16    32
Direct
  0.9739237092000010  0.0812846836999981  0.1593442558000007
  0.2243271948999990  0.3310177800999980  0.1604488027000031
  0.7244353351999990  0.3298228327999979  0.1569315105000015
  0.9744275441999974  0.5807005690000011  0.1580660886999965
  0.9675716990999987  0.4295702599999984  0.3441098436999965
  0.2229893407000034  0.6705255091000026  0.3412009441000023
  0.7206901157999965  0.6752264770999972  0.3447033305999980
  0.9735102547000025  0.9215396979000019  0.3409963110999996
  0.9735364244000024  0.0805509650000005  0.6590025042999983
  0.2234704613999980  0.3311194379000000  0.6585784844000031
  0.7245691278000024  0.3277246175000030  0.6592247544000003
  0.9675590583999991  0.5854800580000017  0.6558970127999970
  0.9739069951000019  0.4219524072999974  0.8406460416999977
  0.2243173043000013  0.6705655339000032  0.8395463873999987
  0.7243529869000014  0.6728975693999999  0.8430719094999972
  0.9743735516000029  0.9226455848000015  0.8419234535000015
  0.4732790309000023  0.5821589244999998  0.1586899918000029
  0.7238368424999990  0.8311849303999992  0.1591203815000028
  0.2240980608000029  0.8298197322000007  0.1583898344999994
  0.4740268545999982  0.0818007239000025  0.1599282204999994
  0.4735953759999987  0.9223611680000019  0.3408530457000012
  0.7245907265999989  0.1685184510999989  0.3407893569999985
  0.2234464272000025  0.1725466337000015  0.3414142888000029
  0.4823686988999967  0.4345884630999990  0.3464194351000032
  0.4823422165000011  0.5881084102000003  0.6535699224999973
  0.7206590376000008  0.8304916214000002  0.6552920206000010
  0.2229783161999990  0.8293129369999974  0.6588022892999987
  0.4736247307999975  0.0815089119999968  0.6591474007000002
  0.4732633770999968  0.9234671938000005  0.8413142774999969
  0.7237769553999982  0.1720596142000019  0.8408806575000014
  0.2240624861999976  0.1714008759999999  0.8416039610999988
  0.4740179252999965  0.4218751161999990  0.8400794464999990
  0.0810818383000012  0.1448751257999987  0.0012496468999998
  0.8681547671999965  0.8568579861000032  0.0006830873999988
  0.8681526023000004  0.3561587331999974  0.9992818519000011
  0.0810824367000009  0.6436339815000025  0.9987551330000031
  0.1132335372999975  0.3940735110000020  0.5000189682999974
  0.3473575427999975  0.6202850884999975  0.5000039529999967
  0.7652112036999981  0.5882151054999980  0.4999910619999994
  0.6030572598000035  0.3763575963999983  0.5000033556000005
  0.0822822773000027  0.1414074176000000  0.4999883186999980
  0.8732424947000013  0.8491792045999986  0.5000065469000035
  0.8662229016999987  0.3541717043000006  0.5000126127999991
  0.0783667919999971  0.6430649616999986  0.4999979405999966
  0.1177976803000007  0.3942938739999988  0.9999294112000001
  0.3307399743999966  0.6075587990999978  0.9991604183000007
  0.8297270512999972  0.6061449727000010  0.0009273097000033
  0.6166596931999990  0.3936220313999996  0.9999154290999996
  0.5801966139000001  0.6438063808000010  0.9994028819999983
  0.3672642391000025  0.3585175600000028  0.0010166320000025
  0.3672761261000019  0.8574887420000010  0.9989792854999990
  0.5801954224000028  0.1444238293999973  0.0006305862999980
  0.5992082169000028  0.8708807344000036  0.4999981747000035
  0.8310191552000035  0.1026237443999989  0.5000148426000024
  0.3370271722000027  0.1144957023999993  0.5000006017000018
  0.1174798958000025  0.8942169397000015  0.5000021685999982
  0.3586192722999968  0.3653789202000013  0.4999756797000003
  0.3591892908999981  0.8643639816000004  0.5000186866000007
  0.5894352652999970  0.1301245289999997  0.4999867614000024
  0.6166671581000003  0.8937345512999997  0.0001203083999997
  0.8297247240000019  0.1052120486000021  0.9990608409000004
  0.3307479407000002  0.1084091772000022  0.0008447127000011
  0.1177966995999995  0.8943595364000032  0.0000582369000028
  0.2222017624999992  0.2517609531000033  0.4999977573000010
  0.4741323503999979  0.5009721397999982  0.9996861010999964
  0.9740841507000013  0.5004803921999965  0.9996478585999995
  0.2234115305000017  0.7512306982999988  0.5000008052000027
  0.2241341100000014  0.2516815557000029  0.0010029513000021
  0.4735826576999997  0.4956981907999989  0.4999922908000016
  0.9681429711000007  0.5001194342999966  0.5000044376999995
  0.2241374422999982  0.7506781267999969  0.9989934708999968
  0.7282215011000019  0.7529679866999999  0.4999977928000021
  0.9740807761999974  0.0008274369000034  0.0003424698000032
  0.4741357012999998  0.0012893162000012  0.0003210918999983
  0.7247468871999985  0.2456187065999984  0.5000058775000014
  0.7240293516999969  0.7497650211999982  0.0004490859000015
  0.9740413370000027  0.9980382509000023  0.5000000356999976
  0.4730372701000007  0.9978066879000025  0.5000009665999983
  0.7240315888999973  0.2493142321999997  0.9995530448000025
  0.9739072244000013  0.3274209125999974  0.1538725428999967
  0.2245588879999971  0.5772025759999977  0.1514282778000009
  0.7241837137000005  0.5758787540000014  0.1542603579000001
  0.9745874991999983  0.8259058359000022  0.1511060651000022
  0.9741352719999981  0.1718523473000033  0.3480634785000021
  0.2235444347999973  0.4266465740000029  0.3492092663000008
  0.7227919807999967  0.4115774201000022  0.3435084027000030
  0.9769639358000006  0.6743430158999999  0.3458947808000019
  0.9741397547999995  0.3237834592000013  0.6519328166999969
  0.2235652565000024  0.5774383951000033  0.6507883904000025
  0.7227875008000026  0.5680745331999972  0.6564901137999968
  0.9769709970000022  0.8284467033999974  0.6541015772000023
  0.9745909745999981  0.1747949438999967  0.8488888333999967
  0.2241098204999972  0.4250224226000014  0.8480349593000014
  0.7241609479999980  0.4227029218999974  0.8494209074999972
  0.9739095210000031  0.6735456692999975  0.8461245579999996
  0.4734901607999973  0.8262016565999986  0.1506903252000029
  0.7241657507000028  0.0732930512999985  0.1505865564000004
  0.2241023186000035  0.0769835161000003  0.1519590788999992
  0.4739905088000000  0.3280056864999992  0.1549678183000012
  0.4733458954000014  0.6755610327000028  0.3472227131999972
  0.7228668301999974  0.9226359279999983  0.3473927288000027
  0.2240441325999996  0.9255213069000021  0.3481123848999985
  0.4734279392000005  0.1705943488000017  0.3491882340999979
  0.4733512661000034  0.8283305273999986  0.6527797191999980
  0.7228621137999980  0.0752366776999978  0.6526094865999994
  0.2240491653999968  0.0774048692000022  0.6518833529000005
  0.4734295909999986  0.3214187725000031  0.6508118707999984
  0.4739963995999972  0.6730315423999969  0.8450311372999977
  0.7241822200999977  0.9216133947000031  0.8457389317999997
  0.2245680280000002  0.9257743109000032  0.8485708485999979
  0.4734922629000025  0.1755124929999994  0.8493113784000030

             NaN             NaN             NaN
             NaN             NaN             NaN
             NaN             NaN             NaN
             NaN             NaN             NaN
             NaN             NaN             NaN
             NaN             NaN             NaN
             NaN             NaN             NaN
             NaN             NaN             NaN
             NaN             NaN             NaN
             NaN             NaN             NaN
             NaN             NaN             NaN
             NaN             NaN             NaN
             NaN             NaN             NaN
             NaN             NaN             NaN
             NaN             NaN             NaN
             NaN             NaN             NaN
             NaN             NaN             NaN
             NaN             NaN             NaN
             NaN             NaN             NaN
             NaN             NaN             NaN
             NaN             NaN             NaN
             NaN             NaN             NaN
             NaN             NaN             NaN
             NaN             NaN             NaN
             NaN             NaN             NaN
             NaN             NaN             NaN
             NaN             NaN             NaN
             NaN             NaN             NaN
             NaN             NaN             NaN
             NaN             NaN             NaN
             NaN             NaN             NaN
             NaN             NaN             NaN
             NaN             NaN             NaN
             NaN             NaN             NaN
             NaN             NaN             NaN
             NaN             NaN             NaN
             NaN             NaN             NaN
             NaN             NaN             NaN
             NaN             NaN             NaN
             NaN             NaN             NaN
             NaN             NaN             NaN
             NaN             NaN             NaN
             NaN             NaN             NaN
             NaN             NaN             NaN
             NaN             NaN             NaN
             NaN             NaN             NaN
             NaN             NaN             NaN
             NaN             NaN             NaN
             NaN             NaN             NaN
             NaN             NaN             NaN
             NaN             NaN             NaN
             NaN             NaN             NaN
             NaN             NaN             NaN
             NaN             NaN             NaN
             NaN             NaN             NaN
             NaN             NaN             NaN
             NaN             NaN             NaN
             NaN             NaN             NaN
             NaN             NaN             NaN
             NaN             NaN             NaN
             NaN             NaN             NaN
             NaN             NaN             NaN
             NaN             NaN             NaN
             NaN             NaN             NaN
             NaN             NaN             NaN
             NaN             NaN             NaN
             NaN             NaN             NaN
             NaN             NaN             NaN
             NaN             NaN             NaN
             NaN             NaN             NaN
             NaN             NaN             NaN
             NaN             NaN             NaN
             NaN             NaN             NaN
             NaN             NaN             NaN
             NaN             NaN             NaN
             NaN             NaN             NaN
             NaN             NaN             NaN
             NaN             NaN             NaN
             NaN             NaN             NaN
             NaN             NaN             NaN
             NaN             NaN             NaN
             NaN             NaN             NaN
             NaN             NaN             NaN
             NaN             NaN             NaN
             NaN             NaN             NaN
             NaN             NaN             NaN
             NaN             NaN             NaN
             NaN             NaN             NaN
             NaN             NaN             NaN
             NaN             NaN             NaN
             NaN             NaN             NaN
             NaN             NaN             NaN
             NaN             NaN             NaN
             NaN             NaN             NaN
             NaN             NaN             NaN
             NaN             NaN             NaN
             NaN             NaN             NaN
             NaN             NaN             NaN
             NaN             NaN             NaN
             NaN             NaN             NaN
             NaN             NaN             NaN
             NaN             NaN             NaN
             NaN             NaN             NaN
             NaN             NaN             NaN
             NaN             NaN             NaN
             NaN             NaN             NaN
             NaN             NaN             NaN
             NaN             NaN             NaN
             NaN             NaN             NaN
             NaN             NaN             NaN
             NaN             NaN             NaN
