# Compound: Fe32Li31O16S32. Old comment: Fe32Li31O16S32
  1.0000000000
  7.6911861600  -7.6885056400   0.0000000100
  7.6884112800   7.6911136200  -0.0126780500
 -3.8335882400  -3.8349345400  12.8627506400
Fe    Li    O     S
   32    31    16    32
Direct
  0.9739237092   0.0812846837   0.1593442558
  0.2243271949   0.3310177801   0.1604488027
  0.7244353352   0.3298228328   0.1569315105
  0.9744275442   0.5807005690   0.1580660887
  0.9675716991   0.4295702600   0.3441098437
  0.2229893407   0.6705255091   0.3412009441
  0.7206901158   0.6752264771   0.3447033306
  0.9735102547   0.9215396979   0.3409963111
  0.9735364244   0.0805509650   0.6590025043
  0.2234704614   0.3311194379   0.6585784844
  0.7245691278   0.3277246175   0.6592247544
  0.9675590584   0.5854800580   0.6558970128
  0.9739069951   0.4219524073   0.8406460417
  0.2243173043   0.6705655339   0.8395463874
  0.7243529869   0.6728975694   0.8430719095
  0.9743735516   0.9226455848   0.8419234535
  0.4732790309   0.5821589245   0.1586899918
  0.7238368425   0.8311849304   0.1591203815
  0.2240980608   0.8298197322   0.1583898345
  0.4740268546   0.0818007239   0.1599282205
  0.4735953760   0.9223611680   0.3408530457
  0.7245907266   0.1685184511   0.3407893570
  0.2234464272   0.1725466337   0.3414142888
  0.4823686989   0.4345884631   0.3464194351
  0.4823422165   0.5881084102   0.6535699225
  0.7206590376   0.8304916214   0.6552920206
  0.2229783162   0.8293129370   0.6588022893
  0.4736247308   0.0815089120   0.6591474007
  0.4732633771   0.9234671938   0.8413142775
  0.7237769554   0.1720596142   0.8408806575
  0.2240624862   0.1714008760   0.8416039611
  0.4740179253   0.4218751162   0.8400794465
  0.0810818383   0.1448751258   0.0012496469
  0.8681547672   0.8568579861   0.0006830874
  0.8681526023   0.3561587332   0.9992818519
  0.0810824367   0.6436339815   0.9987551330
  0.1132335373   0.3940735110   0.5000189683
  0.3473575428   0.6202850885   0.5000039530
  0.7652112037   0.5882151055   0.4999910620
  0.6030572598   0.3763575964   0.5000033556
  0.0822822773   0.1414074176   0.4999883187
  0.8732424947   0.8491792046   0.5000065469
  0.8662229017   0.3541717043   0.5000126128
  0.0783667920   0.6430649617   0.4999979406
  0.1177976803   0.3942938740  -0.0000705888
  0.3307399744   0.6075587991  -0.0008395817
  0.8297270513   0.6061449727   0.0009273097
  0.6166596932   0.3936220314  -0.0000845709
  0.5801966139   0.6438063808   0.9994028820
  0.3672642391   0.3585175600   0.0010166320
  0.3672761261   0.8574887420   0.9989792855
  0.5801954224   0.1444238294   0.0006305863
  0.5992082169   0.8708807344   0.4999981747
  0.8310191552   0.1026237444   0.5000148426
  0.3370271722   0.1144957024   0.5000006017
  0.1174798958   0.8942169397   0.5000021686
  0.3586192723   0.3653789202   0.4999756797
  0.3591892909   0.8643639816   0.5000186866
  0.5894352653   0.1301245290   0.4999867614
  0.6166671581   0.8937345513   1.0001203084
  0.8297247240   0.1052120486   0.9990608409
  0.3307479407   0.1084091772   1.0008447127
  0.1177966996   0.8943595364   1.0000582369
  0.2222017625   0.2517609531   0.4999977573
  0.4741323504   0.5009721398  -0.0003138989
  0.9740841507   0.5004803922  -0.0003521414
  0.2234115305   0.7512306983   0.5000008052
  0.2241341100   0.2516815557   0.0010029513
  0.4735826577   0.4956981908   0.4999922908
  0.9681429711   0.5001194343   0.5000044377
  0.2241374423   0.7506781268   0.9989934709
  0.7282215011   0.7529679867   0.4999977928
  0.9740807762   1.0008274369   1.0003424698
  0.4741357013   0.0012893162   1.0003210919
  0.7247468872   0.2456187066   0.5000058775
  0.7240293517   0.7497650212   0.0004490859
  0.9740413370   0.9980382509   0.5000000357
  0.4730372701   0.9978066879   0.5000009666
  0.7240315889   0.2493142322   0.9995530448
  0.9739072244   0.3274209126   0.1538725429
  0.2245588880   0.5772025760   0.1514282778
  0.7241837137   0.5758787540   0.1542603579
  0.9745874992   0.8259058359   0.1511060651
  0.9741352720   0.1718523473   0.3480634785
  0.2235444348   0.4266465740   0.3492092663
  0.7227919808   0.4115774201   0.3435084027
  0.9769639358   0.6743430159   0.3458947808
  0.9741397548   0.3237834592   0.6519328167
  0.2235652565   0.5774383951   0.6507883904
  0.7227875008   0.5680745332   0.6564901138
  0.9769709970   0.8284467034   0.6541015772
  0.9745909746   0.1747949439   0.8488888334
  0.2241098205   0.4250224226   0.8480349593
  0.7241609480   0.4227029219   0.8494209075
  0.9739095210   0.6735456693   0.8461245580
  0.4734901608   0.8262016566   0.1506903252
  0.7241657507   0.0732930513   0.1505865564
  0.2241023186   0.0769835161   0.1519590789
  0.4739905088   0.3280056865   0.1549678183
  0.4733458954   0.6755610327   0.3472227132
  0.7228668302   0.9226359280   0.3473927288
  0.2240441326   0.9255213069   0.3481123849
  0.4734279392   0.1705943488   0.3491882341
  0.4733512661   0.8283305274   0.6527797192
  0.7228621138   0.0752366777   0.6526094866
  0.2240491654   0.0774048692   0.6518833529
  0.4734295910   0.3214187725   0.6508118708
  0.4739963996   0.6730315424   0.8450311373
  0.7241822201   0.9216133947   0.8457389318
  0.2245680280   0.9257743109   0.8485708486
  0.4734922629   0.1755124930   0.8493113784
