# Compound: Li8Fe6S6O4. Old comment: Li4Fe3S3O4 Enum minimum
  1.0000000000
  7.6150022000  -0.0003825800  -1.4095513200
 -0.1358258200   3.9735870600  -0.7348679700
 -0.0478291200  -0.1071026000  10.5527142700
Li    Fe    S     O
    8     6     6     4
Direct
  0.9544579800   0.0020448300   0.0040896500
  0.5455420200   0.9979551700   0.9959103500
  0.3604832500   0.8035873400   0.6071746700
  0.1395167500   0.1964126600   0.3928253300
  0.2136109100   0.9214700100   0.8429400300
  0.6903344100   0.8874597000   0.7749194000
  0.2863890900   0.0785299900   0.1570599700
  0.8096655900   0.1125403000   0.2250806000
  0.9300203900   0.8005309000   0.6010618000
  0.5699796100   0.1994691000   0.3989382000
  0.4490081200   0.4009291000   0.8018582000
  0.9555681900   0.4073188100   0.8146376200
  0.0509918800   0.5990709000   0.1981418000
  0.5444318100   0.5926811900   0.1853623800
  0.2500000000   0.5000000000   0.0000000000
  0.7500000000   0.5000000000   0.0000000000
  0.3523440800   0.6840427100   0.3680854300
  0.8313945100   0.6836873000   0.3673745900
  0.1476559200   0.3159572900   0.6319145700
  0.6686054900   0.3163127000   0.6326254100
  0.4503305800   0.9028937500   0.8057874900
  0.9526274400   0.9041000400   0.8082000800
  0.0496694200   0.0971062500   0.1942125100
  0.5473725600   0.0958999600   0.1917999200
