# Compound: Li8Fe6S6O4. Old comment: Fe3
   1.00000000000000     
     7.6058141499999996    0.0025847800000000   -1.3918079600000000
    -0.1359955500000000    3.9785525800000001   -0.7357862800000000
    -0.0617556700000000   -0.1116819700000000   10.5444263800000009
   Li   Fe   S    O 
     8     6     6     4
Direct
  0.9505503199999978  0.0022310100000027  0.0044619999999966
  0.5494496800000022  0.9977689899999973  0.9955380000000034
  0.3557761100000008  0.8039153799999994  0.6078307399999971
  0.1442238899999992  0.1960846200000006  0.3921692600000029
  0.2146775000000005  0.9229671399999972  0.8459342800000016
  0.6892883200000028  0.8861793599999999  0.7723587199999997
  0.2853224999999995  0.0770328600000028  0.1540657199999984
  0.8107116799999972  0.1138206400000001  0.2276412800000003
  0.9303449800000010  0.8007424899999975  0.6014849800000022
  0.5696550199999990  0.1992575100000025  0.3985150199999978
  0.4489483099999987  0.4006113399999975  0.8012226800000022
  0.9559295899999967  0.4074756300000004  0.8149512600000008
  0.0510516900000013  0.5993886600000025  0.1987773199999978
  0.5440704100000033  0.5925243699999996  0.1850487399999992
  0.2500000000000000  0.5000000000000000  0.0000000000000000
  0.7500000000000000  0.5000000000000000  0.0000000000000000
  0.3522947499999987  0.6842941499999995  0.3685882999999990
  0.8308421300000006  0.6838092799999984  0.3676185500000031
  0.1477052500000013  0.3157058500000005  0.6314117000000010
  0.6691578699999994  0.3161907200000016  0.6323814499999969
  0.4505400600000016  0.9028002700000002  0.8056005299999995
  0.9523664800000020  0.9043005799999975  0.8086011600000020
  0.0494599399999984  0.0971997299999998  0.1943994700000005
  0.5476335199999980  0.0956994200000025  0.1913988399999980
 
  0.00000000E+00  0.00000000E+00  0.00000000E+00
  0.00000000E+00  0.00000000E+00  0.00000000E+00
  0.00000000E+00  0.00000000E+00  0.00000000E+00
  0.00000000E+00  0.00000000E+00  0.00000000E+00
  0.00000000E+00  0.00000000E+00  0.00000000E+00
  0.00000000E+00  0.00000000E+00  0.00000000E+00
  0.00000000E+00  0.00000000E+00  0.00000000E+00
  0.00000000E+00  0.00000000E+00  0.00000000E+00
  0.00000000E+00  0.00000000E+00  0.00000000E+00
  0.00000000E+00  0.00000000E+00  0.00000000E+00
  0.00000000E+00  0.00000000E+00  0.00000000E+00
  0.00000000E+00  0.00000000E+00  0.00000000E+00
  0.00000000E+00  0.00000000E+00  0.00000000E+00
  0.00000000E+00  0.00000000E+00  0.00000000E+00
  0.00000000E+00  0.00000000E+00  0.00000000E+00
  0.00000000E+00  0.00000000E+00  0.00000000E+00
  0.00000000E+00  0.00000000E+00  0.00000000E+00
  0.00000000E+00  0.00000000E+00  0.00000000E+00
  0.00000000E+00  0.00000000E+00  0.00000000E+00
  0.00000000E+00  0.00000000E+00  0.00000000E+00
  0.00000000E+00  0.00000000E+00  0.00000000E+00
  0.00000000E+00  0.00000000E+00  0.00000000E+00
  0.00000000E+00  0.00000000E+00  0.00000000E+00
  0.00000000E+00  0.00000000E+00  0.00000000E+00
