# No comment
0
Gamma
            4             7             3
  0.000000000   0.000000000   0.000000000
