# Compound: Li8Fe6S6O4. Old comment: Fe3Li4O2S3 primitive cell
  1.0000000000
  7.6058141500   0.0025847800  -1.3918079600
 -0.1359955500   3.9785525800  -0.7357862800
 -0.0617556700  -0.1116819700  10.5444263800
Li    Fe    S     O
    8     6     6     4
Direct
  0.9505503200   0.0022310100   0.0044620000
  0.5494496800   0.9977689900   0.9955380000
  0.3557761100   0.8039153800   0.6078307400
  0.1442238900   0.1960846200   0.3921692600
  0.2146775000   0.9229671400   0.8459342800
  0.6892883200   0.8861793600   0.7723587200
  0.2853225000   0.0770328600   0.1540657200
  0.8107116800   0.1138206400   0.2276412800
  0.9303449800   0.8007424900   0.6014849800
  0.5696550200   0.1992575100   0.3985150200
  0.4489483100   0.4006113400   0.8012226800
  0.9559295900   0.4074756300   0.8149512600
  0.0510516900   0.5993886600   0.1987773200
  0.5440704100   0.5925243700   0.1850487400
  0.2500000000   0.5000000000   0.0000000000
  0.7500000000   0.5000000000   0.0000000000
  0.3522947500   0.6842941500   0.3685883000
  0.8308421300   0.6838092800   0.3676185500
  0.1477052500   0.3157058500   0.6314117000
  0.6691578700   0.3161907200   0.6323814500
  0.4505400600   0.9028002700   0.8056005300
  0.9523664800   0.9043005800   0.8086011600
  0.0494599400   0.0971997300   0.1943994700
  0.5476335200   0.0956994200   0.1913988400
