# Compound: Li8O4S8Fe8. Old comment: Fe8
   1.0000000000000000     
     7.6385258900000004    0.0013578800000000   -0.0065612300000000
    -0.0013156100000000    7.6385366000000001   -0.0065612500000000
    -1.9042818399999999   -1.9049505600000001    6.3497641299999996
   Li   O    S    Fe
     8     4     8     8
Direct
  0.2242448499999981  0.0623867199999992  0.0000946099999979
  0.7242524099999983  0.9896842400000025  0.0001125000000002
  0.2242524099999983  0.4896842400000025  0.0001125000000002
  0.7242448499999981  0.5623867199999992  0.0000946099999979
  0.5103157699999983  0.2757475900000017  0.9998874999999998
  0.9376132699999999  0.2757551500000019  0.9999053900000021
  0.4376132699999999  0.7757551500000019  0.9999053900000021
  0.0103157699999983  0.7757475900000017  0.9998874999999998
  0.4740835400000023  0.0259099700000007  0.9999983100000023
  0.9740905399999988  0.0259169600000035  0.0000016899999977
  0.4740905399999988  0.5259169600000035  0.0000016899999977
  0.9740835400000023  0.5259099700000007  0.9999983100000023
  0.2998999799999993  0.3517055000000013  0.3032078499999997
  0.7998982000000012  0.3516990700000022  0.3031971400000018
  0.2998982000000012  0.8516990700000022  0.3031971400000018
  0.7998999799999993  0.8517055000000013  0.3032078499999997
  0.1483009299999978  0.2001017999999988  0.6968028599999982
  0.6482944999999987  0.2001000200000007  0.6967921500000003
  0.1482944999999987  0.7001000200000007  0.6967921500000003
  0.6483009299999978  0.7001017999999988  0.6968028599999982
  0.0533252999999974  0.1051679400000012  0.3169729600000011
  0.5533032000000020  0.1051705900000002  0.3169671100000002
  0.0533032000000020  0.6051705900000002  0.3169671100000002
  0.5533252999999974  0.6051679400000012  0.3169729600000011
  0.3948294099999998  0.4466967999999980  0.6830328899999998
  0.8948320599999988  0.4466747000000026  0.6830270399999989
  0.3948320599999988  0.9466747000000026  0.6830270399999989
  0.8948294099999998  0.9466967999999980  0.6830328899999998

  0.00000000E+00  0.00000000E+00  0.00000000E+00
  0.00000000E+00  0.00000000E+00  0.00000000E+00
  0.00000000E+00  0.00000000E+00  0.00000000E+00
  0.00000000E+00  0.00000000E+00  0.00000000E+00
  0.00000000E+00  0.00000000E+00  0.00000000E+00
  0.00000000E+00  0.00000000E+00  0.00000000E+00
  0.00000000E+00  0.00000000E+00  0.00000000E+00
  0.00000000E+00  0.00000000E+00  0.00000000E+00
  0.00000000E+00  0.00000000E+00  0.00000000E+00
  0.00000000E+00  0.00000000E+00  0.00000000E+00
  0.00000000E+00  0.00000000E+00  0.00000000E+00
  0.00000000E+00  0.00000000E+00  0.00000000E+00
  0.00000000E+00  0.00000000E+00  0.00000000E+00
  0.00000000E+00  0.00000000E+00  0.00000000E+00
  0.00000000E+00  0.00000000E+00  0.00000000E+00
  0.00000000E+00  0.00000000E+00  0.00000000E+00
  0.00000000E+00  0.00000000E+00  0.00000000E+00
  0.00000000E+00  0.00000000E+00  0.00000000E+00
  0.00000000E+00  0.00000000E+00  0.00000000E+00
  0.00000000E+00  0.00000000E+00  0.00000000E+00
  0.00000000E+00  0.00000000E+00  0.00000000E+00
  0.00000000E+00  0.00000000E+00  0.00000000E+00
  0.00000000E+00  0.00000000E+00  0.00000000E+00
  0.00000000E+00  0.00000000E+00  0.00000000E+00
  0.00000000E+00  0.00000000E+00  0.00000000E+00
  0.00000000E+00  0.00000000E+00  0.00000000E+00
  0.00000000E+00  0.00000000E+00  0.00000000E+00
  0.00000000E+00  0.00000000E+00  0.00000000E+00
