# Compound: Li8O4S8Fe8. Old comment: Fe8Li8O4S8
  1.0000000000
  7.6385258900   0.0013578800  -0.0065612300
 -0.0013156100   7.6385366000  -0.0065612500
 -1.9042818400  -1.9049505600   6.3497641300
Li    O     S     Fe
    8     4     8     8
Direct
  0.2242448500   0.0623867200   0.0000946100
  0.7242524100   0.9896842400   0.0001125000
  0.2242524100   0.4896842400   0.0001125000
  0.7242448500   0.5623867200   0.0000946100
  0.5103157700   0.2757475900   0.9998875000
  0.9376132700   0.2757551500   0.9999053900
  0.4376132700   0.7757551500   0.9999053900
  0.0103157700   0.7757475900   0.9998875000
  0.4740835400   0.0259099700   0.9999983100
  0.9740905400   0.0259169600   0.0000016900
  0.4740905400   0.5259169600   0.0000016900
  0.9740835400   0.5259099700   0.9999983100
  0.2998999800   0.3517055000   0.3032078500
  0.7998982000   0.3516990700   0.3031971400
  0.2998982000   0.8516990700   0.3031971400
  0.7998999800   0.8517055000   0.3032078500
  0.1483009300   0.2001018000   0.6968028600
  0.6482945000   0.2001000200   0.6967921500
  0.1482945000   0.7001000200   0.6967921500
  0.6483009300   0.7001018000   0.6968028600
  0.0533253000   0.1051679400   0.3169729600
  0.5533032000   0.1051705900   0.3169671100
  0.0533032000   0.6051705900   0.3169671100
  0.5533253000   0.6051679400   0.3169729600
  0.3948294100   0.4466968000   0.6830328900
  0.8948320600   0.4466747000   0.6830270400
  0.3948320600   0.9466747000   0.6830270400
  0.8948294100   0.9466968000   0.6830328900
