# Compound: Fe24Li31O16S24. Old comment:
   1.0000000000000000     
     7.8866538400000001   -7.9475566999999998    0.0601846200000000
     7.3433505600000002    7.9467915400000004   -2.8792872599999999
    -0.0478291200000000   -0.1071026000000000   10.5527142699999992
   Fe   Li   O    S 
    24    31    16    24
Direct
  0.2591062806901642  0.6632375686626832  0.6026056434421416
  0.2344419285403180  0.3361545886531285  0.3979387173241881
  0.1232789232456661  0.3244880754788417  0.8049416347044658
  0.3872048063389231  0.5861644501665311  0.8154082537519237
  0.8742992098557533  0.1742551467542497  0.1984348981139794
  0.1249383943968451  0.4219783181710172  0.1869691392062559
  0.0230493712405223  0.9233215077811667  0.6011962715917469
  0.9802759224069112  0.5842829875874057  0.4004225182718121
  0.8724478164482038  0.5757462228691458  0.8036807038080737
  0.1248460889308337  0.8275788259969711  0.8160678343915065
  0.6287050283948104  0.4279528634673186  0.1971385493409378
  0.8728412651172821  0.6686093759180294  0.1850625879352697
  0.7624433076070727  0.1595987267085266  0.6027255374598787
  0.7348045605411093  0.8309290969464916  0.3998273617823282
  0.6250357799566101  0.8235843522475538  0.8040351488469059
  0.8736277040785707  0.0786545100351981  0.8156190003745495
  0.3775790464599817  0.6767687784260193  0.1991436864182902
  0.6243995879674311  0.9207471058178497  0.1864411994459865
  0.4982940861749114  0.3985923854792655  0.6018012793887136
  0.4831152067188749  0.0809649231355201  0.3989277957808425
  0.3732563782780962  0.0746019022601154  0.8046027020110526
  0.6321227107881940  0.3410989021740667  0.8154436251591104
  0.1247386114833821  0.9241561126095230  0.1976028471352640
  0.3745942260338329  0.1717735734093700  0.1869340869073480
  0.4865365841771143  0.4870380714257571  0.9993243030091425
  0.0249149124398991  0.5245335327165435  0.9984926885851119
  0.9793893162565843  0.3844829230062640  0.6083804385108302
  0.0211499894128807  0.1209549007665987  0.3933943395533515
  0.8769246887062079  0.3369228528404965  0.8440925333731140
  0.1281162426478827  0.5649930583535535  0.7800316337576281
  0.1224040741299556  0.1616729031847823  0.1544730555168775
  0.3782913716960125  0.4326219611904510  0.2189799340153060
  0.2274956968570690  0.7244196103437085  0.0050668355641859
  0.7678382140516805  0.7659812118435833  0.9919510272685342
  0.6802886140965891  0.5946049766078896  0.6568875839536306
  0.7724447451249299  0.3756143283106905  0.3951189844353317
  0.8716796665780230  0.8084699073163513  0.7479247697859792
  0.8749557079670137  0.4115077020420035  0.1544111087025077
  0.1266713678739701  0.6840141700587012  0.2301038693763838
  0.9696892625371492  0.9704115645590075  0.0015162908343721
  0.5248346635545091  0.0244623914419208  0.9987283189793882
  0.4822906922476856  0.8806105584954000  0.6090923030133722
  0.5246497733664162  0.6178643976049406  0.3945016360018140
  0.3760176214496375  0.8380442424001653  0.8447165296185829
  0.6200222042062739  0.0729314214187956  0.7800251243001242
  0.6248745858115066  0.6633021478774743  0.1517457473619616
  0.8758929645196529  0.9316778158528497  0.2268172424772846
  0.7237697998509395  0.2283235861240671  0.0046448715881508
  0.2731190826642392  0.2728158056750820  0.9988458966140741
  0.2328845502814735  0.1361413237024352  0.6088397014222448
  0.2740336816330446  0.8719511147208041  0.3942032787992472
  0.1247497123659707  0.0861969604440132  0.8461332438748955
  0.3721314387484365  0.3197997296812052  0.7889222233991915
  0.3732538704420353  0.9126728643641389  0.1540336255824345
  0.6262629443544931  0.1850379617568091  0.2297114093303904
  0.0002509056481178  0.4520449290199383  0.8086471498531237
  0.2512608616721038  0.7017208699588720  0.8117402821301617
  0.9992119494215507  0.0476712244237291  0.1933624371513189
  0.2491966947052825  0.2973291873077176  0.1914917379739234
  0.7547043835001930  0.7055102766850525  0.8037858137797852
  0.9978507110860845  0.9489586120411575  0.8050768967537426
  0.7504114537757441  0.2999293636372871  0.1960064222006795
  0.0003066838152189  0.5484160669587526  0.1939260662756528
  0.4997351382762593  0.9525694943432893  0.8088846178707255
  0.7486541802758726  0.2041340323286504  0.8114401671827179
  0.5031247060283948  0.5508991167410373  0.1933818224526208
  0.7498344910331050  0.7971096008507271  0.1920637215403330
  0.2482650806092221  0.2005046128937986  0.8088501114035863
  0.4963074905525637  0.4474815410665107  0.8042725936235707
  0.2504161813500843  0.7992451132390744  0.1963170475046274
  0.4995763020045700  0.0488688635936828  0.1937064346882208
  0.9997544608070732  0.2490234558795729  0.0000676597923387
  0.2506523805419755  0.4984821087980280  0.0010062723848746
  0.0049078972797813  0.3458973854811835  0.3663348965685334
  0.2475244406184652  0.5855492242787512  0.3658388788965412
  0.9955588024014664  0.1544818459567335  0.6345391078282542
  0.2561137964056893  0.4107332086912612  0.6325260093927679
  0.7525518941018924  0.4987959358575121  0.0032111733972596
  0.0014618395257080  0.7496223202532496  0.0033527298247357
  0.7552599982036112  0.5978280658314908  0.3708707909663213
  0.9943866243170528  0.8371911797947781  0.3692589562236340
  0.7502636477581298  0.3950113333780728  0.6311801938515912
  0.0142241384542684  0.6573032591040068  0.6327242385641787
  0.4980946489201779  0.7533653984002648  0.0040234370301795
  0.7485871474041513  0.0020261615043620  0.0026193521143773
  0.5051474289478247  0.8469242050884637  0.3682748293699964
  0.7451525059055842  0.0861185379679639  0.3664183295216094
  0.4873240986765332  0.6586547920355030  0.6319760934982723
  0.7493107857397795  0.9220633707537180  0.6329377374839369
  0.2488181098434321 -0.0000897011290847  0.0004685272651996
  0.4984860176532980  0.2511885595182120  0.0014976047523236
  0.2538622328429097  0.0964988320693656  0.3668249258387518
  0.4942134565468806  0.3392369438412896  0.3662193336080937
  0.2457429262560124  0.9042733677709945  0.6345544258133176
  0.5023627301059447  0.1645723528559121  0.6325108768416159

             NaN             NaN             NaN
             NaN             NaN             NaN
             NaN             NaN             NaN
             NaN             NaN             NaN
             NaN             NaN             NaN
             NaN             NaN             NaN
             NaN             NaN             NaN
             NaN             NaN             NaN
             NaN             NaN             NaN
             NaN             NaN             NaN
             NaN             NaN             NaN
             NaN             NaN             NaN
             NaN             NaN             NaN
             NaN             NaN             NaN
             NaN             NaN             NaN
             NaN             NaN             NaN
             NaN             NaN             NaN
             NaN             NaN             NaN
             NaN             NaN             NaN
             NaN             NaN             NaN
             NaN             NaN             NaN
             NaN             NaN             NaN
             NaN             NaN             NaN
             NaN             NaN             NaN
             NaN             NaN             NaN
             NaN             NaN             NaN
             NaN             NaN             NaN
             NaN             NaN             NaN
             NaN             NaN             NaN
             NaN             NaN             NaN
             NaN             NaN             NaN
             NaN             NaN             NaN
             NaN             NaN             NaN
             NaN             NaN             NaN
             NaN             NaN             NaN
             NaN             NaN             NaN
             NaN             NaN             NaN
             NaN             NaN             NaN
             NaN             NaN             NaN
             NaN             NaN             NaN
             NaN             NaN             NaN
             NaN             NaN             NaN
             NaN             NaN             NaN
             NaN             NaN             NaN
             NaN             NaN             NaN
             NaN             NaN             NaN
             NaN             NaN             NaN
             NaN             NaN             NaN
             NaN             NaN             NaN
             NaN             NaN             NaN
             NaN             NaN             NaN
             NaN             NaN             NaN
             NaN             NaN             NaN
             NaN             NaN             NaN
             NaN             NaN             NaN
             NaN             NaN             NaN
             NaN             NaN             NaN
             NaN             NaN             NaN
             NaN             NaN             NaN
             NaN             NaN             NaN
             NaN             NaN             NaN
             NaN             NaN             NaN
             NaN             NaN             NaN
             NaN             NaN             NaN
             NaN             NaN             NaN
             NaN             NaN             NaN
             NaN             NaN             NaN
             NaN             NaN             NaN
             NaN             NaN             NaN
             NaN             NaN             NaN
             NaN             NaN             NaN
             NaN             NaN             NaN
             NaN             NaN             NaN
             NaN             NaN             NaN
             NaN             NaN             NaN
             NaN             NaN             NaN
             NaN             NaN             NaN
             NaN             NaN             NaN
             NaN             NaN             NaN
             NaN             NaN             NaN
             NaN             NaN             NaN
             NaN             NaN             NaN
             NaN             NaN             NaN
             NaN             NaN             NaN
             NaN             NaN             NaN
             NaN             NaN             NaN
             NaN             NaN             NaN
             NaN             NaN             NaN
             NaN             NaN             NaN
             NaN             NaN             NaN
             NaN             NaN             NaN
             NaN             NaN             NaN
             NaN             NaN             NaN
             NaN             NaN             NaN
             NaN             NaN             NaN
