# Compound: Fe24Li31O16S24. Old comment: Fe24Li31O16S24
  1.0000000000
  7.8866538400  -7.9475567000   0.0601846200
  7.3433505600   7.9467915400  -2.8792872600
 -0.0478291200  -0.1071026000  10.5527142700
Fe    Li    O     S
   24    31    16    24
Direct
  0.2590554364   0.6628385919   0.6026433589
  0.2340542118   0.3355748968   0.3980754087
  0.1234093277   0.3245844554   0.8047644450
  0.3872595835   0.5862870476   0.8157270748
  0.8743893614   0.1743479541   0.1984377807
  0.1251373604   0.4221708087   0.1871227631
  0.0224213883   0.9226871980   0.6013071242
  0.9805776787   0.5846351534   0.4003757780
  0.8725007263   0.5758870280   0.8039058875
  0.1250038833   0.8277822582   0.8161677016
  0.6287702958   0.4279982882   0.1971149509
  0.8728504669   0.6686103830   0.1850542297
  0.7621167810   0.1594656072   0.6027263705
  0.7346570512   0.8307457975   0.3996679959
  0.6251114856   0.8236556396   0.8041644709
  0.8738151332   0.0788512246   0.8157341514
  0.3776928472   0.6768506027   0.1990031814
  0.6244224076   0.9208421539   0.1866530735
  0.4986190132   0.3991694085   0.6017939623
  0.4830603298   0.0811787136   0.3990317832
  0.3734505494   0.0747708633   0.8045663554
  0.6320800096   0.3410835433   0.8155771328
  0.1248990079   0.9243433242   0.1976681077
  0.3747208911   0.1719632197   0.1870205059
  0.4851072099   0.4854309935   0.9993763278
  0.0246273476   0.5242343121   0.9985024078
  0.9793332953   0.3842647548   0.6083034979
  0.0209359341   0.1209435254   0.3933134069
  0.8769915289   0.3369038541   0.8439444616
  0.1280171445   0.5652216817   0.7801180200
  0.1224667915   0.1618052017   0.1544374932
  0.3783197759   0.4330567267   0.2204060836
  0.2276170370   0.7245587169   0.0050452983
  0.7682171852   0.7665040433   0.9922244733
  0.6800825996   0.5945243185   0.6576652082
  0.7721960047   0.3756671870   0.3951378931
  0.8716810584   0.8087034093   0.7487229404
  0.8750953755   0.4115909028   0.1546397971
  0.1266713016   0.6840159983   0.2295166215
  0.9697500200   0.9704892009   0.0016505595
  0.5246348758   0.0241952610   0.9988069507
  0.4818294447   0.8806465719   0.6090453724
  0.5254150490   0.6185961576   0.3943340440
  0.3760092050   0.8381802861   0.8446723838
  0.6202620315   0.0727439071   0.7800087484
  0.6248346581   0.6628320747   0.1502792246
  0.8759599827   0.9316937224   0.2269632492
  0.7238353404   0.2284948932   0.0046886007
  0.2732950746   0.2730159257   0.9987485142
  0.2312293715   0.1341650495   0.6088261157
  0.2737148624   0.8712076915   0.3941425601
  0.1248192398   0.0863391424   0.8464349290
  0.3719509406   0.3191955644   0.7870591271
  0.3732897354   0.9128517818   0.1541569847
  0.6263874514   0.1850237093   0.2296566361
  1.0002959876   0.4520633423   0.8084654565
  0.2513016634   0.7018508944   0.8118564331
 -0.0007073044   0.0477338954   0.1933854993
  0.2493222512   0.2975068388   0.1917751633
  0.7546665545   0.7055679861   0.8041261431
  0.9979261234   0.9491376560   0.8054733258
  0.7504917804   0.2999591127   0.1959885712
  0.0003873599   0.5484460392   0.1938748994
  0.4998086928   0.9525413463   0.8087141474
  0.7487211090   0.2041143678   0.8115216859
  0.5031196055   0.5508249600   0.1931294776
  0.7497643313   0.7969993454   0.1918615265
  0.2482830031   0.2004553777   0.8085441619
  0.4961303561   0.4473443459   0.8043506316
  0.2504938834   0.7993657231   0.1961953629
  0.4995922945   0.0489851395   0.1938990737
 -0.0000409236   0.2491715438   1.0001256268
  0.2505104744   0.4985164132   0.0009308669
  0.0049061535   0.3460420542   0.3663842051
  0.2473792167   0.5860624528   0.3657874660
  0.9955168815   0.1543360384   0.6344885510
  0.2560578653   0.4112484418   0.6324135527
  0.7529071373   0.4985906862   0.0030577317
  0.0014813983   0.7495706663   0.0032897402
  0.7553868005   0.5977948966   0.3706772497
  0.9944619941   0.8370868536   0.3691126873
  0.7501178670   0.3949405178   0.6311812618
  0.0141635420   0.6577968845   0.6327719870
  0.4979949282   0.7537778928   0.0039604995
  0.7485528072   0.0020366040   0.0025827519
  0.5051790576   0.8469773401   0.3683361064
  0.7453278978   0.0860568137   0.3663326808
  0.4873110381   0.6584036899   0.6318339657
  0.7497950568   0.9219369250   0.6328342549
  0.2489683222   0.0001675228   1.0005962683
  0.4984633664   0.2509349332   0.0014289868
  0.2538915481   0.0965532076   0.3671313025
  0.4945690734   0.3392478176   0.3662449591
  0.2456393543   0.9042540120   0.6346337676
  0.5028145444   0.1645168633   0.6325022590
