# No comment
0
Gamma
            2             3             3
  0.000000000   0.000000000   0.000000000
