# Compound: Fe32Li31O16S32. Old comment:
   1.0000000000000000     
     7.6911861600000000   -7.6885056399999998    0.0000000100000000
     7.6884112800000004    7.6911136200000003   -0.0126780500000000
    -3.8335882400000001   -3.8349345399999999   12.8627506399999998
   Fe   Li   O    S 
    32    31    16    32
Direct
  0.9742676020999994  0.0813990583000006  0.1595676075000014
  0.2240875210000013  0.3308400891000005  0.1604425283999973
  0.7240057360999970  0.3296037818000030  0.1574481604000013
  0.9752981994000010  0.5804784072999993  0.1578702500000020
  0.9649588464999965  0.4328306685000030  0.3466232928999986
  0.2247986622000013  0.6702037466000021  0.3412637046000029
  0.7284338827999974  0.6737753139999967  0.3448557139999977
  0.9740506991999993  0.9220749228000003  0.3410604415999998
  0.9740960244999997  0.0810420321000009  0.6589345583999986
  0.2238899266999965  0.3308983275000017  0.6585512026000018
  0.7260991723000032  0.3277508405999967  0.6592342618000018
  0.9649217049000001  0.5862786862999982  0.6533736179000016
  0.9742590736999972  0.4218473877999998  0.8404190607000004
  0.2240777088999977  0.6703916214000003  0.8395540591999975
  0.7239383502000010  0.6721342527999994  0.8425530434000024
  0.9752592813999996  0.9226239090000021  0.8421212072999964
  0.4741025225999991  0.5821568173000031  0.1589428767000030
  0.7241960328999966  0.8309597500999999  0.1590924588999982
  0.2243287245999994  0.8296923161000009  0.1584532100999994
  0.4745674572999974  0.0814809135999965  0.1597475968000026
  0.4742288767999980  0.9214830473000006  0.3408199969000023
  0.7260929091999984  0.1685478214999989  0.3407815432999968
  0.2238416094999991  0.1723436914999965  0.3414420284999977
  0.4796590280000004  0.4298796229000033  0.3434544396000021
  0.4796533374999967  0.5864170701999996  0.6565434528000011
  0.7283925444999966  0.8289234562000019  0.6551464494000001
  0.2247767344999971  0.8289616204000012  0.6587416437999991
  0.4742707126999974  0.0806721451999977  0.6591745771999982
  0.4740824992000015  0.9232402608000001  0.8410623413000025
  0.7241367151000020  0.1718527203999969  0.8409069634000019
  0.2242988846000031  0.1712079787999983  0.8415438991000030
  0.4745520072999980  0.4217435107999989  0.8402546566000026
  0.0811999582999974  0.1450550762999967  0.0014285061999999
  0.8685834431000004  0.8564330864000027  0.0002119602999997
  0.8685811607000034  0.3562048252999972  0.9997437015000017
  0.0812004799999997  0.6436354686000030  0.9985791778000035
  0.1167881619999989  0.3935966749000031  0.5000326477999977
  0.3507477181999974  0.6218700446000014  0.5000068960000021
  0.6661407711999985  0.5927932379999987  0.4999972411999991
  0.5995778533999996  0.3673639139000002  0.5000070979000029
  0.0828489294000008  0.1416097052999987  0.4999867710999979
  0.8734123652999983  0.8477148508000028  0.5000129781000027
  0.8623561010999978  0.3624372156999982  0.5000088836999979
  0.0794783422999998  0.6431701480999976  0.4999936394999978
  0.1180792291999992  0.3941249431000031  0.9996949279999967
  0.3311959477000030  0.6076399649000024  0.9992260188000017
  0.8299430691999987  0.6059473262999973  0.0009315861999966
  0.6168960358999982  0.3933402207999990  0.0000660521999976
  0.5806699148999996  0.6438065967000028  0.9996897795999971
  0.3673305558999971  0.3586174058999987  0.0009840999000019
  0.3673405700999979  0.8576227945000028  0.9990097972000029
  0.5806716633999969  0.1441404965000004  0.0003505935000021
  0.6004826480999981  0.8723652044999994  0.4999869334000024
  0.8328485600000022  0.1038541571000025  0.5000081742999996
  0.3382023803999985  0.1151132170000011  0.4999987452000028
  0.1177389037000012  0.8939107678000013  0.4999975058000032
  0.3598302490999998  0.3684141184999987  0.4999758766999989
  0.3593349129000032  0.8650118866000014  0.5000180561000036
  0.5915121544000002  0.1280727500000012  0.4999872365999991
  0.6169009429000027  0.8932890274000016  0.9999548026000014
  0.8299417535999964  0.1050158939000028  0.9990607901999979
  0.3312009165999967  0.1084269461999980  0.0007878751999968
  0.1180787356000010  0.8944268840999996  0.0002959723000018
  0.2237622918000000  0.2517585546999968  0.4999979298999975
  0.4745224198999978  0.5009794914999972  0.9999124089000020
  0.9744204279000002  0.5004003100000034  0.9994527671000029
  0.2241068245999998  0.7511116419999979  0.5000015513000022
  0.2243103891999993  0.2515529697000005  0.0009599782000009
  0.4842291938999992  0.5001570593000011  0.4999967792999982
  0.9784524318000010  0.4972474778999967  0.5000032396999998
  0.2243118319000033  0.7505937482999983  0.9990383069999993
  0.7264456378999995  0.7525455099999974  0.5000013219000010
  0.9744169810999992  0.0009411384000018  0.0005375081000025
  0.4745249650000005  0.0010718378999997  0.0000938961999992
  0.7257149758000025  0.2451884078000006  0.5000054562000003
  0.7247420997999967  0.7496305855000003  0.0003013283999991
  0.9744505843000013  0.9975973682999992  0.4999983220000033
  0.4734223609999972  0.9980686059999968  0.4999982399999965
  0.7247431491000000  0.2493300598999966  0.9996990980000007
  0.9752880911999995  0.3283839460999971  0.1553277034999994
  0.2249326268999994  0.5770484474000028  0.1515222996999981
  0.7247106494000022  0.5760003193000003  0.1543635808000019
  0.9749017202000019  0.8256859805999994  0.1510461148000033
  0.9744469176999999  0.1709654633000000  0.3479233998999973
  0.2303827198999997  0.4262980700000014  0.3493374529000022
  0.7265376026999988  0.4133793115000017  0.3445545777999968
  0.9776864915000019  0.6747149752999988  0.3458673725000025
  0.9744514045000017  0.3230295012999989  0.6520700185999999
  0.2304046654000018  0.5769663288999993  0.6506634798999968
  0.7265290266999997  0.5688197834000022  0.6554459584000014
  0.9776948404999999  0.8288519979000029  0.6541292969999972
  0.9749071289000000  0.1746344828000019  0.8489479743999979
  0.2247777593999984  0.4248947498000035  0.8479978732000006
  0.7243100974000001  0.4228495656999982  0.8493374044000035
  0.9752902035000020  0.6730521241999980  0.8446639625000003
  0.4739284241000021  0.8264971374999988  0.1508343100000005
  0.7243122970999991  0.0735235674999970  0.1506705438999987
  0.2247691584000009  0.0768930957000009  0.1519977600000004
  0.4753193697000029  0.3269797710999995  0.1533120531000023
  0.4739987710999998  0.6750938059999996  0.3474386852999984
  0.7231456007000006  0.9227001077999972  0.3474470040000028
  0.2247540425000025  0.9255629972999984  0.3481605639999970
  0.4744245469999981  0.1724276923999994  0.3496284122999995
  0.4740080497999983  0.8276574761000006  0.6525644554999985
  0.7231423468000031  0.0752489808999997  0.6525532981000026
  0.2247585387000015  0.0773954187000001  0.6518357543999969
  0.4744238383999999  0.3228003967999982  0.6503710058999985
  0.4753264212999966  0.6736666334999981  0.8466906414000022
  0.7247117360999979  0.9216340595000005  0.8456370890000002
  0.2249418226000017  0.9255303638000001  0.8484796608999972
  0.4739324175999968  0.1756623882000028  0.8491665341000001

             NaN             NaN             NaN
             NaN             NaN             NaN
             NaN             NaN             NaN
             NaN             NaN             NaN
             NaN             NaN             NaN
             NaN             NaN             NaN
             NaN             NaN             NaN
             NaN             NaN             NaN
             NaN             NaN             NaN
             NaN             NaN             NaN
             NaN             NaN             NaN
             NaN             NaN             NaN
             NaN             NaN             NaN
             NaN             NaN             NaN
             NaN             NaN             NaN
             NaN             NaN             NaN
             NaN             NaN             NaN
             NaN             NaN             NaN
             NaN             NaN             NaN
             NaN             NaN             NaN
             NaN             NaN             NaN
             NaN             NaN             NaN
             NaN             NaN             NaN
             NaN             NaN             NaN
             NaN             NaN             NaN
             NaN             NaN             NaN
             NaN             NaN             NaN
             NaN             NaN             NaN
             NaN             NaN             NaN
             NaN             NaN             NaN
             NaN             NaN             NaN
             NaN             NaN             NaN
             NaN             NaN             NaN
             NaN             NaN             NaN
             NaN             NaN             NaN
             NaN             NaN             NaN
             NaN             NaN             NaN
             NaN             NaN             NaN
             NaN             NaN             NaN
             NaN             NaN             NaN
             NaN             NaN             NaN
             NaN             NaN             NaN
             NaN             NaN             NaN
             NaN             NaN             NaN
             NaN             NaN             NaN
             NaN             NaN             NaN
             NaN             NaN             NaN
             NaN             NaN             NaN
             NaN             NaN             NaN
             NaN             NaN             NaN
             NaN             NaN             NaN
             NaN             NaN             NaN
             NaN             NaN             NaN
             NaN             NaN             NaN
             NaN             NaN             NaN
             NaN             NaN             NaN
             NaN             NaN             NaN
             NaN             NaN             NaN
             NaN             NaN             NaN
             NaN             NaN             NaN
             NaN             NaN             NaN
             NaN             NaN             NaN
             NaN             NaN             NaN
             NaN             NaN             NaN
             NaN             NaN             NaN
             NaN             NaN             NaN
             NaN             NaN             NaN
             NaN             NaN             NaN
             NaN             NaN             NaN
             NaN             NaN             NaN
             NaN             NaN             NaN
             NaN             NaN             NaN
             NaN             NaN             NaN
             NaN             NaN             NaN
             NaN             NaN             NaN
             NaN             NaN             NaN
             NaN             NaN             NaN
             NaN             NaN             NaN
             NaN             NaN             NaN
             NaN             NaN             NaN
             NaN             NaN             NaN
             NaN             NaN             NaN
             NaN             NaN             NaN
             NaN             NaN             NaN
             NaN             NaN             NaN
             NaN             NaN             NaN
             NaN             NaN             NaN
             NaN             NaN             NaN
             NaN             NaN             NaN
             NaN             NaN             NaN
             NaN             NaN             NaN
             NaN             NaN             NaN
             NaN             NaN             NaN
             NaN             NaN             NaN
             NaN             NaN             NaN
             NaN             NaN             NaN
             NaN             NaN             NaN
             NaN             NaN             NaN
             NaN             NaN             NaN
             NaN             NaN             NaN
             NaN             NaN             NaN
             NaN             NaN             NaN
             NaN             NaN             NaN
             NaN             NaN             NaN
             NaN             NaN             NaN
             NaN             NaN             NaN
             NaN             NaN             NaN
             NaN             NaN             NaN
             NaN             NaN             NaN
             NaN             NaN             NaN
             NaN             NaN             NaN
