# Compound: Fe32Li31O16S32. Old comment: Fe32Li31O16S32
  1.0000000000
  7.6911861600  -7.6885056400   0.0000000100
  7.6884112800   7.6911136200  -0.0126780500
 -3.8335882400  -3.8349345400  12.8627506400
Fe    Li    O     S
   32    31    16    32
Direct
  0.9742676021   0.0813990583   0.1595676075
  0.2240875210   0.3308400891   0.1604425284
  0.7240057361   0.3296037818   0.1574481604
  0.9752981994   0.5804784073   0.1578702500
  0.9649588465   0.4328306685   0.3466232929
  0.2247986622   0.6702037466   0.3412637046
  0.7284338828   0.6737753140   0.3448557140
  0.9740506992   0.9220749228   0.3410604416
  0.9740960245   0.0810420321   0.6589345584
  0.2238899267   0.3308983275   0.6585512026
  0.7260991723   0.3277508406   0.6592342618
  0.9649217049   0.5862786863   0.6533736179
  0.9742590737   0.4218473878   0.8404190607
  0.2240777089   0.6703916214   0.8395540592
  0.7239383502   0.6721342528   0.8425530434
  0.9752592814   0.9226239090   0.8421212073
  0.4741025226   0.5821568173   0.1589428767
  0.7241960329   0.8309597501   0.1590924589
  0.2243287246   0.8296923161   0.1584532101
  0.4745674573   0.0814809136   0.1597475968
  0.4742288768   0.9214830473   0.3408199969
  0.7260929092   0.1685478215   0.3407815433
  0.2238416095   0.1723436915   0.3414420285
  0.4796590280   0.4298796229   0.3434544396
  0.4796533375   0.5864170702   0.6565434528
  0.7283925445   0.8289234562   0.6551464494
  0.2247767345   0.8289616204   0.6587416438
  0.4742707127   0.0806721452   0.6591745772
  0.4740824992   0.9232402608   0.8410623413
  0.7241367151   0.1718527204   0.8409069634
  0.2242988846   0.1712079788   0.8415438991
  0.4745520073   0.4217435108   0.8402546566
  0.0811999583   0.1450550763   0.0014285062
  0.8685834431   0.8564330864   1.0002119603
  0.8685811607   0.3562048253  -0.0002562985
  0.0812004800   0.6436354686   0.9985791778
  0.1167881620   0.3935966749   0.5000326478
  0.3507477182   0.6218700446   0.5000068960
  0.6661407712   0.5927932380   0.4999972412
  0.5995778534   0.3673639139   0.5000070979
  0.0828489294   0.1416097053   0.4999867711
  0.8734123653   0.8477148508   0.5000129781
  0.8623561011   0.3624372157   0.5000088837
  0.0794783423   0.6431701481   0.4999936395
  0.1180792292   0.3941249431   0.9996949280
  0.3311959477   0.6076399649  -0.0007739812
  0.8299430692   0.6059473263   0.0009315862
  0.6168960359   0.3933402208   0.0000660522
  0.5806699149   0.6438065967   0.9996897796
  0.3673305559   0.3586174059   0.0009840999
  0.3673405701   0.8576227945   0.9990097972
  0.5806716634   0.1441404965   0.0003505935
  0.6004826481   0.8723652045   0.4999869334
  0.8328485600   0.1038541571   0.5000081743
  0.3382023804   0.1151132170   0.4999987452
  0.1177389037   0.8939107678   0.4999975058
  0.3598302491   0.3684141185   0.4999758767
  0.3593349129   0.8650118866   0.5000180561
  0.5915121544   0.1280727500   0.4999872366
  0.6169009429   0.8932890274   0.9999548026
  0.8299417536   0.1050158939   0.9990607902
  0.3312009166   0.1084269462   1.0007878752
  0.1180787356   0.8944268841   0.0002959723
  0.2237622918   0.2517585547   0.4999979299
  0.4745224199   0.5009794915  -0.0000875911
  0.9744204279   0.5004003100   0.9994527671
  0.2241068246   0.7511116420   0.5000015513
  0.2243103892   0.2515529697   0.0009599782
  0.4842291939   0.5001570593   0.4999967793
  0.9784524318   0.4972474779   0.5000032397
  0.2243118319   0.7505937483   0.9990383070
  0.7264456379   0.7525455100   0.5000013219
  0.9744169811   0.0009411384   0.0005375081
  0.4745249650   1.0010718379   1.0000938962
  0.7257149758   0.2451884078   0.5000054562
  0.7247420998   0.7496305855   0.0003013284
  0.9744505843   0.9975973683   0.4999983220
  0.4734223610   0.9980686060   0.4999982400
  0.7247431491   0.2493300599   0.9996990980
  0.9752880912   0.3283839461   0.1553277035
  0.2249326269   0.5770484474   0.1515222997
  0.7247106494   0.5760003193   0.1543635808
  0.9749017202   0.8256859806   0.1510461148
  0.9744469177   0.1709654633   0.3479233999
  0.2303827199   0.4262980700   0.3493374529
  0.7265376027   0.4133793115   0.3445545778
  0.9776864915   0.6747149753   0.3458673725
  0.9744514045   0.3230295013   0.6520700186
  0.2304046654   0.5769663289   0.6506634799
  0.7265290267   0.5688197834   0.6554459584
  0.9776948405   0.8288519979   0.6541292970
  0.9749071289   0.1746344828   0.8489479744
  0.2247777594   0.4248947498   0.8479978732
  0.7243100974   0.4228495657   0.8493374044
  0.9752902035   0.6730521242   0.8446639625
  0.4739284241   0.8264971375   0.1508343100
  0.7243122971   0.0735235675   0.1506705439
  0.2247691584   0.0768930957   0.1519977600
  0.4753193697   0.3269797711   0.1533120531
  0.4739987711   0.6750938060   0.3474386853
  0.7231456007   0.9227001078   0.3474470040
  0.2247540425   0.9255629973   0.3481605640
  0.4744245470   0.1724276924   0.3496284123
  0.4740080498   0.8276574761   0.6525644555
  0.7231423468   0.0752489809   0.6525532981
  0.2247585387   0.0773954187   0.6518357544
  0.4744238384   0.3228003968   0.6503710059
  0.4753264213   0.6736666335   0.8466906414
  0.7247117361   0.9216340595   0.8456370890
  0.2249418226   0.9255303638   0.8484796609
  0.4739324176   0.1756623882   0.8491665341
