# Compound: Li8Fe6S6O4. Old comment: Li4
   1.0000000000000000     
     7.4290102356519476    0.0022238080672424   -1.3610810884707623
    -0.1372611616177337    4.0155780087957300   -0.7426336998665072
    -0.0086435784062335   -0.1557585401328725   10.3999211017711399
   Li   Fe   S    O 
     8     6     6     4
Direct
  0.9537182310949777  0.0027655226399100  0.0055310352798255
  0.5462817689050223  0.9972344773600901  0.9944689647201745
  0.3604937618905040  0.8052758909001886  0.6105517718004045
  0.1395062381094960  0.1947241090998116  0.3894482281995954
  0.2170808092935518  0.9211931736449011  0.8423863572897857
  0.6864747625674187  0.8878734882361864  0.7757469764723928
  0.2829191907064482  0.0788068263550987  0.1576136427102143
  0.8135252374325813  0.1121265117638137  0.2242530235276073
  0.9312840589752774  0.8015071529303106  0.6030143058606268
  0.5687159410247226  0.1984928470696893  0.3969856941393733
  0.4467404381937617  0.4004948958030094  0.8009897916060145
  0.9553740421663787  0.4072641680835914  0.8145283361671884
  0.0532595618062383  0.5995051041969907  0.1990102083939858
  0.5446259578336213  0.5927358319164086  0.1854716638328117
  0.2500000000000000  0.5000000000000000  0.0000000000000000
  0.7500000000000000  0.5000000000000000  0.0000000000000000
  0.3520014516428950  0.6843246981194443  0.3686494062389102
  0.8320949905996092  0.6838668448374224  0.3677336796748336
  0.1479985483571050  0.3156753018805556  0.6313505937610898
  0.6679050094003908  0.3161331551625777  0.6322663203251664
  0.4505359713769350  0.9031293594924653  0.8062587089849403
  0.9521737883822269  0.9036841353630123  0.8073682707260322
  0.0494640286230650  0.0968706405075346  0.1937412910150597
  0.5478262116177731  0.0963158646369877  0.1926317292739679

  0.00000000E+00  0.00000000E+00  0.00000000E+00
  0.00000000E+00  0.00000000E+00  0.00000000E+00
  0.00000000E+00  0.00000000E+00  0.00000000E+00
  0.00000000E+00  0.00000000E+00  0.00000000E+00
  0.00000000E+00  0.00000000E+00  0.00000000E+00
  0.00000000E+00  0.00000000E+00  0.00000000E+00
  0.00000000E+00  0.00000000E+00  0.00000000E+00
  0.00000000E+00  0.00000000E+00  0.00000000E+00
  0.00000000E+00  0.00000000E+00  0.00000000E+00
  0.00000000E+00  0.00000000E+00  0.00000000E+00
  0.00000000E+00  0.00000000E+00  0.00000000E+00
  0.00000000E+00  0.00000000E+00  0.00000000E+00
  0.00000000E+00  0.00000000E+00  0.00000000E+00
  0.00000000E+00  0.00000000E+00  0.00000000E+00
  0.00000000E+00  0.00000000E+00  0.00000000E+00
  0.00000000E+00  0.00000000E+00  0.00000000E+00
  0.00000000E+00  0.00000000E+00  0.00000000E+00
  0.00000000E+00  0.00000000E+00  0.00000000E+00
  0.00000000E+00  0.00000000E+00  0.00000000E+00
  0.00000000E+00  0.00000000E+00  0.00000000E+00
  0.00000000E+00  0.00000000E+00  0.00000000E+00
  0.00000000E+00  0.00000000E+00  0.00000000E+00
  0.00000000E+00  0.00000000E+00  0.00000000E+00
  0.00000000E+00  0.00000000E+00  0.00000000E+00
