#######################################################
#CASTEP cell file: export_data_v2/Li2Fe2S2O/000-Li2Fe2S2O-e6d3a9-hull-3-meV.cell
#Created using the Atomic Simulation Environment (ASE)#
#######################################################

%BLOCK LATTICE_CART
 3.858067  0.000000  0.000000
-0.001350  3.858073  0.000000
-1.917841 -1.918514  6.392015
%ENDBLOCK LATTICE_CART

%BLOCK POSITIONS_ABS
Li  1.729173  0.213966  0.002446
Li  1.725516  0.210308  6.389568
O  3.654671  0.203330  0.000000
S  1.721467  2.137734  1.916223
S -0.198252  0.217340  4.475791
Fe -0.193035  0.173818  2.043054
Fe  1.764991  2.132532  4.348961
%ENDBLOCK POSITIONS_ABS

