#######################################################
#CASTEP cell file: 000-Li4Fe3S3O2-68ece2-hull-18-meV-super.cell
#Created using the Atomic Simulation Environment (ASE)#
#######################################################

%BLOCK LATTICE_CART
 3.813698  0.000000  0.000000
-0.004070  3.998244  0.000000
 0.000000  0.000000 21.724116
%ENDBLOCK LATTICE_CART

%BLOCK POSITIONS_ABS
Li  0.668249  0.188571  8.475693
Li  2.573063  2.187693  2.386365
Li  0.680233  2.267135  4.501164
Li  2.589117  0.268013  6.360894
O  0.666303  2.190219  2.014287
O  2.575187  0.191097  8.847770
S  2.572537  0.184843  3.937767
S  0.663654  2.183965  6.924291
S  2.573280  0.190973  0.000000
Fe  2.570979  2.191021  8.566264
Fe  0.666164  0.191899  2.295794
Fe  0.670777  2.185918  0.000000
Li  2.573063  2.187693 19.337751
Li  0.668249  0.188571 13.248423
Li  2.589117  0.268013 15.363222
Li  0.680233  2.267135 17.222952
O  2.575187  0.191097 12.876345
O  0.666303  2.190219 19.709828
S  0.663653  2.183965 14.799825
S  2.572538  0.184843 17.786349
S  0.664396  2.190095 10.862058
Fe  0.666165  0.191899 19.428322
Fe  2.570978  2.191021 13.157852
Fe  2.579661  0.186796 10.862058
%ENDBLOCK POSITIONS_ABS

