#######################################################
#CASTEP cell file: 000-Li2Fe2S2O-e6d3a9-hull-3-meV-super.cell
#Created using the Atomic Simulation Environment (ASE)#
#######################################################

%BLOCK LATTICE_CART
 3.858067  0.000000  0.000000
-0.001350  3.858073  0.000000
 0.021035  0.021045 12.784030
%ENDBLOCK LATTICE_CART

%BLOCK POSITIONS_ABS
Li  1.729173  0.213966  0.002446
Li  1.725516  0.210308  6.389568
O  3.654671  0.203330  0.000000
S  1.721467  2.137734  1.916223
S  3.659815  0.217340  4.475791
Fe  3.665032  0.173818  2.043054
Fe  1.764991  2.132532  4.348961
Li  3.668049  2.153525  6.394461
Li  3.664392  2.149867 12.781583
O  1.735480  2.142889  6.392015
S  3.661693  0.219220  8.308238
S  1.740624  2.156899 10.867806
Fe  1.745841  2.113377  8.435069
Fe  3.705217  0.214018 10.740976
%ENDBLOCK POSITIONS_ABS

