#######################################################
#CASTEP cell file: ../../Li-Fe-S-O-paper/visualisation/Li2FeSO-ziheng.cell
#Created using the Atomic Simulation Environment (ASE)#
#######################################################

%BLOCK LATTICE_CART
 7.944507  0.000000  0.000000
 0.000000  7.944507  0.000000
 0.000000  0.000000  7.724309
%ENDBLOCK LATTICE_CART

%BLOCK POSITIONS_ABS
Li  1.986127  1.986127  0.000000
Li  1.986127  1.986127  3.862154
Li  1.986127  5.958380  0.000000
Li  1.986127  5.958380  3.862154
Li  5.958380  1.986127  0.000000
Li  5.958380  1.986127  3.862154
Li  5.958380  5.958380  0.000000
Li  5.958380  5.958380  3.862154
Li  1.986127  0.000000  5.793232
Li  1.986127  3.972254  5.793232
Li  5.958380  0.000000  5.793232
Li  5.958380  3.972254  5.793232
Li  0.000000  1.986127  1.931077
Li  0.000000  5.958380  1.931077
Li  3.972254  1.986127  1.931077
Li  3.972254  5.958380  1.931077
Fe  1.986127  0.000000  1.931077
Fe  1.986127  3.972254  1.931077
Fe  5.958380  0.000000  1.931077
Fe  5.958380  3.972254  1.931077
Fe  0.000000  1.986127  5.793232
Fe  0.000000  5.958380  5.793232
Fe  3.972254  1.986127  5.793232
Fe  3.972254  5.958380  5.793232
S  0.000000  0.000000  0.000000
S  0.000000  0.000000  3.862154
S  0.000000  3.972254  0.000000
S  0.000000  3.972254  3.862154
S  3.972254  0.000000  0.000000
S  3.972254  0.000000  3.862154
S  3.972254  3.972254  0.000000
S  3.972254  3.972254  3.862154
O  1.986127  1.986127  1.931077
O  1.986127  1.986127  5.793232
O  1.986127  5.958380  1.931077
O  1.986127  5.958380  5.793232
O  5.958380  1.986127  1.931077
O  5.958380  1.986127  5.793232
O  5.958380  5.958380  1.931077
O  5.958380  5.958380  5.793232
%ENDBLOCK POSITIONS_ABS

