# Compound: Fe24Li31O16S24. Old comment:
   1.0000000000000000     
     7.8866538400000001   -7.9475566999999998    0.0601846200000000
     7.3433505600000002    7.9467915400000004   -2.8792872599999999
    -0.0478291200000000   -0.1071026000000000   10.5527142699999992
   Fe   Li   O    S 
    24    31    16    24
Direct
  0.2708922131309792  0.6675172568342980  0.6016551472080478
  0.2257352830217372  0.3323968574394818  0.3990073292084880
  0.1203681216861694  0.3224505535946603  0.7898369547093960
  0.3740714809785429  0.5768193317069173  0.8164072904419943
  0.8778875256337951  0.1757106855298189  0.1951143849210352
  0.1238118905823871  0.4174879527213471  0.1824926076093526
  0.0149238544706855  0.9136325339748704  0.6027529068801060
  0.9946959228252487  0.5852533739556771  0.3971739296765605
  0.8776093599398730  0.5694672698583855  0.8027437284367853
  0.1245648498653819  0.8272163286701355  0.8156657902349823
  0.6280520659768436  0.4251152007305621  0.2005488618451130
  0.8759041200663912  0.6700943563255093  0.1846007585815804
  0.7720842646429323  0.1676362211360037  0.6022381615549958
  0.7335650594994400  0.8288672571019793  0.3997001403077398
  0.6260137322073255  0.8177437119428381  0.7933357149412571
  0.8767766950125429  0.0785693219587030  0.8150050249953947
  0.3769292185103233  0.6739510655368405  0.1973956716645186
  0.6240072889736447  0.9189884909298410  0.1862302402668422
  0.5135639059865991  0.4153906441089280  0.6024000638998578
  0.4899976643465401  0.0892035614977184  0.3986420404428861
  0.3736713824145159  0.0737333267987757  0.8042724782329516
  0.6250167542712537  0.3272865617686450  0.8129881405024653
  0.1253127556805882  0.9255254344558409  0.2012939144920871
  0.3747511304295484  0.1700000732967702  0.1852517565443541
  0.4783026939285714  0.4741554693778396  0.0058469218051980
  0.0333722465829995  0.5281892895751779  0.9984055505757002
  0.7683115235395891  0.6113355938196737  0.5965721120794988
  0.0244364304578374  0.1343211194136514  0.3976043386773004
  0.8788052345481465  0.3382937891725407  0.8421355963103669
  0.1187115924325384  0.5563076143790099  0.7530080508539092
  0.1246244404373945  0.1617186823269081  0.1543233245721876
  0.3774363884360100  0.4340883265368922  0.2327844531964385
  0.2253362785678394  0.7260254928012467  0.0030477195603054
  0.7759221203513632  0.7752644907667079  0.9967247048498370
  0.7568420788983560  0.3420633582203323  0.3956340410575130
  0.6285430441267555  0.5833405231246608  0.8398400773555338
  0.8730324382445599  0.8161408988870104  0.7745701505216419
  0.8756033269577326  0.4150593591903528  0.1654211079802610
  0.1292829413378553  0.6827423674635940  0.2232992151274841
  0.9749066437169996  0.9760653701783981  0.0060719954420397
  0.5246455371279997  0.0165372085843488  0.9935556285807416
  0.4769332890980510  0.8830068680624248  0.6074534081495024
  0.5305156184249296  0.6239334239794059  0.3953409286223897
  0.3770307433314665  0.8339723603337214  0.8423429007048038
  0.6241478711515547  0.0656125203845641  0.7748515510820346
  0.6251127205778081  0.6609054382149000  0.1536001535885857
  0.8770700010446190  0.9360306709709378  0.2339973896286064
  0.7300341274549929  0.2314102591363980  0.0022068587877166
  0.2745184201013072  0.2759275628797311  0.9952061958831397
  0.2303647828981461  0.1264212060292343  0.6070178332174989
  0.2720932534680844  0.8687840218284116  0.3933506200941810
  0.1248689234398623  0.0879136378525456  0.8450044288021593
  0.3728787724835785  0.3144433462469519  0.7733317844060147
  0.3736400413438257  0.9121797583704111  0.1549401667418220
  0.6265857893143877  0.1766072459992453  0.2099172948469760
  0.0032364347126686  0.4554186460799551  0.8181090318890151
  0.2476664649307925  0.6982550064608104  0.8065907051784935
  0.0009855313027107  0.0503251223426698  0.1979711468079275
  0.2516462278474760  0.2976356200601056  0.1921808370580064
  0.7533680682831997  0.6981567238039271  0.8065532142334109
  0.9995210041704525  0.9505406667855101  0.8114026729832541
  0.7508665401276012  0.2973786589241744  0.1932656383099266
  0.0032336131314792  0.5485244744317024  0.1889910358465414
  0.5007384330416867  0.9476135388471436  0.8045561466427160
  0.7511848058532236  0.2014220454505006  0.8080406606561928
  0.5023813847803800  0.5483588771840671  0.1981387888094704
  0.7509452617910078  0.7985699011709391  0.1936407927689907
  0.2480646679672775  0.2014138571005801  0.8059230498601268
  0.4984347856416574  0.4503745433092407  0.8108122881954687
  0.2518434669376017  0.7998249131371356  0.1949131881036215
  0.4995858107759815  0.0454283483106840  0.1899009428386276
  0.9987477811234281  0.2466980108183698  1.0009350356796947
  0.2557264829867970  0.5034775107192452  0.0073545696730043
  0.0053545088427697  0.3488271848060433  0.3615727005083518
  0.2431117842318507  0.5873536689844283  0.3689081580715655
  0.9962863558082991  0.1466753074967131  0.6331974503710467
  0.2603973759002691  0.4098154712967209  0.6310352359001415
  0.7481891664291191  0.4978167096181023  0.0024127840882334
  0.0016575672939528  0.7539530556874353  0.0055295113848573
  0.7585186446242772  0.5952237589157500  0.3641494526405728
  0.9971920545534146  0.8339010249225446  0.3675456572253490
  0.7408236024382915  0.4021299771094951  0.6370838200047115
  0.0011207682139596  0.6667299961867607  0.6323392095377371
  0.5005369648658822  0.7485805061108308  0.0003354193967270
  0.7504770578773504  0.0014449572840296  0.0028297444310385
  0.5058309038967784  0.8464151258776555  0.3677860837445386
  0.7428060625040059  0.0912388393159442  0.3679734349379759
  0.4940154970379059  0.6513232315170139  0.6333161000132105
  0.7555718631553723  0.9123302204298535  0.6331363500305243
  0.2509736309138237 -0.0011619047595241  0.9988156158768889
  0.5006716673419790  0.2463999043674739  0.9996779170255644
  0.2557506301201914  0.0967860604289388  0.3669438720313107
  0.5008560215625090  0.3324043911271973  0.3662742078080617
  0.2454779012887040  0.9020823254049601  0.6340240201679809
  0.5029336137965555  0.1601295755161195  0.6344992809458156

             NaN             NaN             NaN
             NaN             NaN             NaN
             NaN             NaN             NaN
             NaN             NaN             NaN
             NaN             NaN             NaN
             NaN             NaN             NaN
             NaN             NaN             NaN
             NaN             NaN             NaN
             NaN             NaN             NaN
             NaN             NaN             NaN
             NaN             NaN             NaN
             NaN             NaN             NaN
             NaN             NaN             NaN
             NaN             NaN             NaN
             NaN             NaN             NaN
             NaN             NaN             NaN
             NaN             NaN             NaN
             NaN             NaN             NaN
             NaN             NaN             NaN
             NaN             NaN             NaN
             NaN             NaN             NaN
             NaN             NaN             NaN
             NaN             NaN             NaN
             NaN             NaN             NaN
             NaN             NaN             NaN
             NaN             NaN             NaN
             NaN             NaN             NaN
             NaN             NaN             NaN
             NaN             NaN             NaN
             NaN             NaN             NaN
             NaN             NaN             NaN
             NaN             NaN             NaN
             NaN             NaN             NaN
             NaN             NaN             NaN
             NaN             NaN             NaN
             NaN             NaN             NaN
             NaN             NaN             NaN
             NaN             NaN             NaN
             NaN             NaN             NaN
             NaN             NaN             NaN
             NaN             NaN             NaN
             NaN             NaN             NaN
             NaN             NaN             NaN
             NaN             NaN             NaN
             NaN             NaN             NaN
             NaN             NaN             NaN
             NaN             NaN             NaN
             NaN             NaN             NaN
             NaN             NaN             NaN
             NaN             NaN             NaN
             NaN             NaN             NaN
             NaN             NaN             NaN
             NaN             NaN             NaN
             NaN             NaN             NaN
             NaN             NaN             NaN
             NaN             NaN             NaN
             NaN             NaN             NaN
             NaN             NaN             NaN
             NaN             NaN             NaN
             NaN             NaN             NaN
             NaN             NaN             NaN
             NaN             NaN             NaN
             NaN             NaN             NaN
             NaN             NaN             NaN
             NaN             NaN             NaN
             NaN             NaN             NaN
             NaN             NaN             NaN
             NaN             NaN             NaN
             NaN             NaN             NaN
             NaN             NaN             NaN
             NaN             NaN             NaN
             NaN             NaN             NaN
             NaN             NaN             NaN
             NaN             NaN             NaN
             NaN             NaN             NaN
             NaN             NaN             NaN
             NaN             NaN             NaN
             NaN             NaN             NaN
             NaN             NaN             NaN
             NaN             NaN             NaN
             NaN             NaN             NaN
             NaN             NaN             NaN
             NaN             NaN             NaN
             NaN             NaN             NaN
             NaN             NaN             NaN
             NaN             NaN             NaN
             NaN             NaN             NaN
             NaN             NaN             NaN
             NaN             NaN             NaN
             NaN             NaN             NaN
             NaN             NaN             NaN
             NaN             NaN             NaN
             NaN             NaN             NaN
             NaN             NaN             NaN
             NaN             NaN             NaN
