# Compound: Fe24Li31O16S24. Old comment: Li4Fe3S3O2 Enum Minimum PATH4 INIT FRAME 05
  1.0000000000
  7.8866538400  -7.9475567000   0.0601846200
  7.3433505600   7.9467915400  -2.8792872600
 -0.0478291200  -0.1071026000  10.5527142700
Fe    Li    O     S
   24    31    16    24
Direct
  0.2656536700   0.6663384550   0.6017460067
  0.2309054433   0.3348604533   0.3984577000
  0.1200507067   0.3242619267   0.7912312600
  0.3748953967   0.5793237550   0.8163056733
  0.8765640217   0.1760754933   0.1971378317
  0.1231115483   0.4193789983   0.1837193417
  0.0147911483  -0.0866688983   0.6023752650
 -0.0160103017   0.5801344600   0.3990686850
  0.8758940533   0.5686139717   0.7889936200
  0.1253150050   0.8291738667   0.8166507067
  0.6273814450   0.4260847433   0.1992965483
  0.8740409467   0.6701759233   0.1866220650
  0.7701505983   0.1703912750   0.6013369200
  0.7354492933   0.8343980750   0.3994706583
  0.6253921450   0.8228202833   0.8007668883
  0.8756416017   0.0786181300   0.8137126267
  0.3753680800   0.6744712700   0.1976433283
  0.6243099367  -0.0799309167   0.1847827850
  0.5132954717   0.4156664350   0.6020437817
  0.4854076350   0.0852728317   0.3989703883
  0.3734395083   0.0754015433   0.8029780700
  0.6249603117   0.3290197517   0.8138908733
  0.1242924983  -0.0749083617   0.1990493833
  0.3744299250   0.1711940450   0.1852635417
  0.4768239800   0.4756266333   0.0048355483
  0.0278393367   0.5290590400  -0.0026806283
 -0.2325473583   0.5872630533   0.6067121883
  0.0207517483   0.1273431233   0.3961395700
  0.8773647117   0.3388441383   0.8409826383
  0.1203264633   0.5603097950   0.7601821817
  0.1236987600   0.1629433650   0.1550185283
  0.3764257500   0.4334460200   0.2270227750
  0.2232932117   0.7246755933   0.0042967783
  0.7779146417   0.7712735167  -0.0042372850
  0.7780779817   0.3711566550   0.3970395117
  0.6281636700   0.5851168400   0.8431827083
  0.8727101783   0.8145614400   0.7718681417
  0.8747288683   0.4119896150   0.1539833817
  0.1264776983   0.6838721967   0.2291340150
 -0.0255529533  -0.0228419167   0.0044696983
  0.5254560900   0.0236291650  -0.0043342417
  0.4776040017   0.8798629000   0.6075532567
  0.5231232000   0.6203301267   0.3941615300
  0.3765582967   0.8367085000   0.8437604200
  0.6233932300   0.0662263567   0.7709385333
  0.6238125867   0.6624124500   0.1550531317
  0.8769093133  -0.0662092067   0.2271486033
  0.7265717550   0.2277853033   0.0030444050
  0.2722530850   0.2754102450  -0.0052961483
  0.2277871150   0.1277899000   0.6063953633
  0.2724896867   0.8706304317   0.3932557667
  0.1242409583   0.0886240867   0.8433982517
  0.3720099983   0.3167074833   0.7737514483
  0.3733534567  -0.0870839350   0.1548443000
  0.6275193783   0.1837310650   0.2275275800
  0.0011372850   0.4557386767   0.8141935350
  0.2484083850   0.7006849300   0.8088035400
  0.0004199800   0.0504857100   0.1957788533
  0.2501201383   0.2979422267   0.1908126217
  0.7514133733   0.6996418050   0.8070818533
 -0.0007031433  -0.0489960983   0.8105076600
  0.7509869650   0.2990392033   0.1951851183
  0.0003379067   0.5482446433   0.1912862667
  0.5001962517  -0.0492912450   0.8056324883
  0.7499763383   0.2018653400   0.8072903750
  0.5010978150   0.5492413150   0.1960404700
  0.7499966617   0.7977741717   0.1920449567
  0.2475168633   0.2022630117   0.8047193333
  0.4985446650   0.4521306417   0.8105127217
  0.2505700483   0.7997735217   0.1954852650
  0.5002500667   0.0480676667   0.1918386083
 -0.0018670483   0.2479146300  -0.0001879500
  0.2529001167   0.5027921233   0.0051612017
  0.0060693550   0.3470716867   0.3632820917
  0.2449992133   0.5865110783   0.3676862650
 -0.0046408650   0.1483131767   0.6335222167
  0.2590288817   0.4128778650   0.6318078100
  0.7470016033   0.4978462667   0.0028184850
  0.0018909833   0.7552337700   0.0064154217
  0.7557602233   0.5964506233   0.3673666800
 -0.0056696133   0.8369186617   0.3674577900
  0.7398034183   0.4030422800   0.6344426500
  0.0059786733   0.6673553133   0.6320157700
  0.5002381567   0.7502264167   0.0002994900
  0.7498988750   0.0001064117   0.0015012683
  0.5052604500   0.8468510650   0.3672587667
  0.7449856267   0.0869318400   0.3678668717
  0.4936026800   0.6538277483   0.6341677167
  0.7545695317  -0.0881610217   0.6338376567
  0.2509639400   0.0008662783  -0.0009975350
  0.4992460933   0.2489631283  -0.0006735667
  0.2546309517   0.0969180667   0.3663936633
  0.4952719950   0.3363774767   0.3664536783
  0.2453472183  -0.0969053267   0.6335469167
  0.5024729217   0.1628983317   0.6335023983
