# Compound: Li36O18S36Fe36. Old comment:
   1.00000000000000     
    11.5765832399999997    0.0020662800000000   -0.0095429100000000
    -0.0019855200000000   11.5765998299999993   -0.0095429400000000
    -3.8476794200000000   -3.8490307200000000   12.7663591800000003
   Li   O    S    Fe
    36    18    36    36
Direct
  0.1494002366999965  0.0172780166999971  0.0000071050000017
  0.4827335700000006  0.0172780166999971  0.0000071050000017
  0.8160669032999976  0.0172780166999971  0.0000071050000017
  0.1494002366999965  0.3506113500000012  0.0000071050000017
  0.4827335700000006  0.3506113500000012  0.0000071050000017
  0.8160669032999976  0.3506113500000012  0.0000071050000017
  0.1494002366999965  0.6839446832999982  0.0000071050000017
  0.4827335700000006  0.6839446832999982  0.0000071050000017
  0.8160669032999976  0.6839446832999982  0.0000071050000017
  0.1494002366999965  0.0172780166999971  0.5000071050000017
  0.4827335700000006  0.0172780166999971  0.5000071050000017
  0.8160669032999976  0.0172780166999971  0.5000071050000017
  0.1494002366999965  0.3506113500000012  0.5000071050000017
  0.4827335700000006  0.3506113500000012  0.5000071050000017
  0.8160669032999976  0.3506113500000012  0.5000071050000017
  0.1494002366999965  0.6839446832999982  0.5000071050000017
  0.4827335700000006  0.6839446832999982  0.5000071050000017
  0.8160669032999976  0.6839446832999982  0.5000071050000017
  0.3160553167000018  0.1839330967000024  0.4999928949999983
  0.6493886499999988  0.1839330967000024  0.4999928949999983
  0.9827219833000029  0.1839330967000024  0.4999928949999983
  0.3160553167000018  0.5172664299999994  0.4999928949999983
  0.6493886499999988  0.5172664299999994  0.4999928949999983
  0.9827219833000029  0.5172664299999994  0.4999928949999983
  0.3160553167000018  0.8505997632999964  0.4999928949999983
  0.6493886499999988  0.8505997632999964  0.4999928949999983
  0.9827219833000029  0.8505997632999964  0.4999928949999983
  0.3160553167000018  0.1839330967000024  0.9999928949999983
  0.6493886499999988  0.1839330967000024  0.9999928949999983
  0.9827219833000029  0.1839330967000024  0.9999928949999983
  0.3160553167000018  0.5172664299999994  0.9999928949999983
  0.6493886499999988  0.5172664299999994  0.9999928949999983
  0.9827219833000029  0.5172664299999994  0.9999928949999983
  0.3160553167000018  0.8505997632999964  0.9999928949999983
  0.6493886499999988  0.8505997632999964  0.9999928949999983
  0.9827219833000029  0.8505997632999964  0.9999928949999983
  0.3160628767000020  0.0172707932999998  0.0007205635999981
  0.6493962099999990  0.0172707932999998  0.0000000000000000
  0.9827295433000032  0.0172707932999998  0.0000000000000000
  0.3160628767000020  0.3506041266999986  0.0000000000000000
  0.6493962099999990  0.3506041266999986  0.0000000000000000
  0.9827295433000032  0.3506041266999986  0.0000000000000000
  0.3160628767000020  0.6839374600000028  0.0000000000000000
  0.6493962099999990  0.6839374600000028  0.0000000000000000
  0.9827295433000032  0.6839374600000028  0.0000000000000000
  0.3160628767000020  0.0172707932999998  0.5000000000000000
  0.6493962099999990  0.0172707932999998  0.5000000000000000
  0.9827295433000032  0.0172707932999998  0.5000000000000000
  0.3160628767000020  0.3506041266999986  0.5000000000000000
  0.6493962099999990  0.3506041266999986  0.5000000000000000
  0.9827295433000032  0.3506041266999986  0.5000000000000000
  0.3160628767000020  0.6839374600000028  0.5000000000000000
  0.6493962099999990  0.6839374600000028  0.5000000000000000
  0.9827295433000032  0.6839374600000028  0.5000000000000000
  0.1993405732999989  0.2338867766999968  0.1498377149999968
  0.5326739066999977  0.2338867766999968  0.1498377149999968
  0.8660072400000018  0.2338867766999968  0.1498377149999968
  0.1993405732999989  0.5672201100000009  0.1498377149999968
  0.5326739066999977  0.5672201100000009  0.1498377149999968
  0.8660072400000018  0.5672201100000009  0.1498377149999968
  0.1993405732999989  0.9005534432999980  0.1498377149999968
  0.5326739066999977  0.9005534432999980  0.1498377149999968
  0.8660072400000018  0.9005534432999980  0.1498377149999968
  0.1993405732999989  0.2338867766999968  0.6498377149999968
  0.5326739066999977  0.2338867766999968  0.6498377149999968
  0.8660072400000018  0.2338867766999968  0.6498377149999968
  0.1993405732999989  0.5672201100000009  0.6498377149999968
  0.5326739066999977  0.5672201100000009  0.6498377149999968
  0.8660072400000018  0.5672201100000009  0.6498377149999968
  0.1993405732999989  0.9005534432999980  0.6498377149999968
  0.5326739066999977  0.9005534432999980  0.6498377149999968
  0.8660072400000018  0.9005534432999980  0.6498377149999968
  0.0994465567000020  0.1339927599999982  0.3501622850000032
  0.4327798899999991  0.1339927599999982  0.3501622850000032
  0.7661132233000032  0.1339927599999982  0.3501622850000032
  0.0994465567000020  0.4673260933000023  0.3501622850000032
  0.4327798899999991  0.4673260933000023  0.3501622850000032
  0.7661132233000032  0.4673260933000023  0.3501622850000032
  0.0994465567000020  0.8006594267000011  0.3501622850000032
  0.4327798899999991  0.8006594267000011  0.3501622850000032
  0.7661132233000032  0.8006594267000011  0.3501622850000032
  0.0994465567000020  0.1339927599999982  0.8501622850000032
  0.4327798899999991  0.1339927599999982  0.8501622850000032
  0.7661132233000032  0.1339927599999982  0.8501622850000032
  0.0994465567000020  0.4673260933000023  0.8501622850000032
  0.4327798899999991  0.4673260933000023  0.8501622850000032
  0.7661132233000032  0.4673260933000023  0.8501622850000032
  0.0994465567000020  0.8006594267000011  0.8501622850000032
  0.4327798899999991  0.8006594267000011  0.8501622850000032
  0.7661132233000032  0.8006594267000011  0.8501622850000032
  0.0360320799999982  0.0705763033000011  0.1599003749999994
  0.3693654133000024  0.0705763033000011  0.1599003749999994
  0.7026987467000012  0.0705763033000011  0.1599003749999994
  0.0360320799999982  0.4039096366999999  0.1599003749999994
  0.3693654133000024  0.4039096366999999  0.1599003749999994
  0.7026987467000012  0.4039096366999999  0.1599003749999994
  0.0360320799999982  0.7372429699999969  0.1599003749999994
  0.3693654133000024  0.7372429699999969  0.1599003749999994
  0.7026987467000012  0.7372429699999969  0.1599003749999994
  0.0360320799999982  0.0705763033000011  0.6599003749999994
  0.3693654133000024  0.0705763033000011  0.6599003749999994
  0.7026987467000012  0.0705763033000011  0.6599003749999994
  0.0360320799999982  0.4039096366999999  0.6599003749999994
  0.3693654133000024  0.4039096366999999  0.6599003749999994
  0.7026987467000012  0.4039096366999999  0.6599003749999994
  0.0360320799999982  0.7372429699999969  0.6599003749999994
  0.3693654133000024  0.7372429699999969  0.6599003749999994
  0.7026987467000012  0.7372429699999969  0.6599003749999994
  0.2627570300000031  0.2973012532999988  0.3400996250000006
  0.5960903633000001  0.2973012532999988  0.3400996250000006
  0.9294236966999989  0.2973012532999988  0.3400996250000006
  0.2627570300000031  0.6306345866999976  0.3400996250000006
  0.5960903633000001  0.6306345866999976  0.3400996250000006
  0.9294236966999989  0.6306345866999976  0.3400996250000006
  0.2627570300000031  0.9639679200000018  0.3400996250000006
  0.5960903633000001  0.9639679200000018  0.3400996250000006
  0.9294236966999989  0.9639679200000018  0.3400996250000006
  0.2627570300000031  0.2973012532999988  0.8400996250000006
  0.5960903633000001  0.2973012532999988  0.8400996250000006
  0.9294236966999989  0.2973012532999988  0.8400996250000006
  0.2627570300000031  0.6306345866999976  0.8400996250000006
  0.5960903633000001  0.6306345866999976  0.8400996250000006
  0.9294236966999989  0.6306345866999976  0.8400996250000006
  0.2627570300000031  0.9639679200000018  0.8400996250000006
  0.5960903633000001  0.9639679200000018  0.8400996250000006
  0.9294236966999989  0.9639679200000018  0.8400996250000006
 
  0.00000000E+00  0.00000000E+00  0.00000000E+00
  0.00000000E+00  0.00000000E+00  0.00000000E+00
  0.00000000E+00  0.00000000E+00  0.00000000E+00
  0.00000000E+00  0.00000000E+00  0.00000000E+00
  0.00000000E+00  0.00000000E+00  0.00000000E+00
  0.00000000E+00  0.00000000E+00  0.00000000E+00
  0.00000000E+00  0.00000000E+00  0.00000000E+00
  0.00000000E+00  0.00000000E+00  0.00000000E+00
  0.00000000E+00  0.00000000E+00  0.00000000E+00
  0.00000000E+00  0.00000000E+00  0.00000000E+00
  0.00000000E+00  0.00000000E+00  0.00000000E+00
  0.00000000E+00  0.00000000E+00  0.00000000E+00
  0.00000000E+00  0.00000000E+00  0.00000000E+00
  0.00000000E+00  0.00000000E+00  0.00000000E+00
  0.00000000E+00  0.00000000E+00  0.00000000E+00
  0.00000000E+00  0.00000000E+00  0.00000000E+00
  0.00000000E+00  0.00000000E+00  0.00000000E+00
  0.00000000E+00  0.00000000E+00  0.00000000E+00
  0.00000000E+00  0.00000000E+00  0.00000000E+00
  0.00000000E+00  0.00000000E+00  0.00000000E+00
  0.00000000E+00  0.00000000E+00  0.00000000E+00
  0.00000000E+00  0.00000000E+00  0.00000000E+00
  0.00000000E+00  0.00000000E+00  0.00000000E+00
  0.00000000E+00  0.00000000E+00  0.00000000E+00
  0.00000000E+00  0.00000000E+00  0.00000000E+00
  0.00000000E+00  0.00000000E+00  0.00000000E+00
  0.00000000E+00  0.00000000E+00  0.00000000E+00
  0.00000000E+00  0.00000000E+00  0.00000000E+00
  0.00000000E+00  0.00000000E+00  0.00000000E+00
  0.00000000E+00  0.00000000E+00  0.00000000E+00
  0.00000000E+00  0.00000000E+00  0.00000000E+00
  0.00000000E+00  0.00000000E+00  0.00000000E+00
  0.00000000E+00  0.00000000E+00  0.00000000E+00
  0.00000000E+00  0.00000000E+00  0.00000000E+00
  0.00000000E+00  0.00000000E+00  0.00000000E+00
  0.00000000E+00  0.00000000E+00  0.00000000E+00
  0.00000000E+00  0.00000000E+00  0.00000000E+00
  0.00000000E+00  0.00000000E+00  0.00000000E+00
  0.00000000E+00  0.00000000E+00  0.00000000E+00
  0.00000000E+00  0.00000000E+00  0.00000000E+00
  0.00000000E+00  0.00000000E+00  0.00000000E+00
  0.00000000E+00  0.00000000E+00  0.00000000E+00
  0.00000000E+00  0.00000000E+00  0.00000000E+00
  0.00000000E+00  0.00000000E+00  0.00000000E+00
  0.00000000E+00  0.00000000E+00  0.00000000E+00
  0.00000000E+00  0.00000000E+00  0.00000000E+00
  0.00000000E+00  0.00000000E+00  0.00000000E+00
  0.00000000E+00  0.00000000E+00  0.00000000E+00
  0.00000000E+00  0.00000000E+00  0.00000000E+00
  0.00000000E+00  0.00000000E+00  0.00000000E+00
  0.00000000E+00  0.00000000E+00  0.00000000E+00
  0.00000000E+00  0.00000000E+00  0.00000000E+00
  0.00000000E+00  0.00000000E+00  0.00000000E+00
  0.00000000E+00  0.00000000E+00  0.00000000E+00
  0.00000000E+00  0.00000000E+00  0.00000000E+00
  0.00000000E+00  0.00000000E+00  0.00000000E+00
  0.00000000E+00  0.00000000E+00  0.00000000E+00
  0.00000000E+00  0.00000000E+00  0.00000000E+00
  0.00000000E+00  0.00000000E+00  0.00000000E+00
  0.00000000E+00  0.00000000E+00  0.00000000E+00
  0.00000000E+00  0.00000000E+00  0.00000000E+00
  0.00000000E+00  0.00000000E+00  0.00000000E+00
  0.00000000E+00  0.00000000E+00  0.00000000E+00
  0.00000000E+00  0.00000000E+00  0.00000000E+00
  0.00000000E+00  0.00000000E+00  0.00000000E+00
  0.00000000E+00  0.00000000E+00  0.00000000E+00
  0.00000000E+00  0.00000000E+00  0.00000000E+00
  0.00000000E+00  0.00000000E+00  0.00000000E+00
  0.00000000E+00  0.00000000E+00  0.00000000E+00
  0.00000000E+00  0.00000000E+00  0.00000000E+00
  0.00000000E+00  0.00000000E+00  0.00000000E+00
  0.00000000E+00  0.00000000E+00  0.00000000E+00
  0.00000000E+00  0.00000000E+00  0.00000000E+00
  0.00000000E+00  0.00000000E+00  0.00000000E+00
  0.00000000E+00  0.00000000E+00  0.00000000E+00
  0.00000000E+00  0.00000000E+00  0.00000000E+00
  0.00000000E+00  0.00000000E+00  0.00000000E+00
  0.00000000E+00  0.00000000E+00  0.00000000E+00
  0.00000000E+00  0.00000000E+00  0.00000000E+00
  0.00000000E+00  0.00000000E+00  0.00000000E+00
  0.00000000E+00  0.00000000E+00  0.00000000E+00
  0.00000000E+00  0.00000000E+00  0.00000000E+00
  0.00000000E+00  0.00000000E+00  0.00000000E+00
  0.00000000E+00  0.00000000E+00  0.00000000E+00
  0.00000000E+00  0.00000000E+00  0.00000000E+00
  0.00000000E+00  0.00000000E+00  0.00000000E+00
  0.00000000E+00  0.00000000E+00  0.00000000E+00
  0.00000000E+00  0.00000000E+00  0.00000000E+00
  0.00000000E+00  0.00000000E+00  0.00000000E+00
  0.00000000E+00  0.00000000E+00  0.00000000E+00
  0.00000000E+00  0.00000000E+00  0.00000000E+00
  0.00000000E+00  0.00000000E+00  0.00000000E+00
  0.00000000E+00  0.00000000E+00  0.00000000E+00
  0.00000000E+00  0.00000000E+00  0.00000000E+00
  0.00000000E+00  0.00000000E+00  0.00000000E+00
  0.00000000E+00  0.00000000E+00  0.00000000E+00
  0.00000000E+00  0.00000000E+00  0.00000000E+00
  0.00000000E+00  0.00000000E+00  0.00000000E+00
  0.00000000E+00  0.00000000E+00  0.00000000E+00
  0.00000000E+00  0.00000000E+00  0.00000000E+00
  0.00000000E+00  0.00000000E+00  0.00000000E+00
  0.00000000E+00  0.00000000E+00  0.00000000E+00
  0.00000000E+00  0.00000000E+00  0.00000000E+00
  0.00000000E+00  0.00000000E+00  0.00000000E+00
  0.00000000E+00  0.00000000E+00  0.00000000E+00
  0.00000000E+00  0.00000000E+00  0.00000000E+00
  0.00000000E+00  0.00000000E+00  0.00000000E+00
  0.00000000E+00  0.00000000E+00  0.00000000E+00
  0.00000000E+00  0.00000000E+00  0.00000000E+00
  0.00000000E+00  0.00000000E+00  0.00000000E+00
  0.00000000E+00  0.00000000E+00  0.00000000E+00
  0.00000000E+00  0.00000000E+00  0.00000000E+00
  0.00000000E+00  0.00000000E+00  0.00000000E+00
  0.00000000E+00  0.00000000E+00  0.00000000E+00
  0.00000000E+00  0.00000000E+00  0.00000000E+00
  0.00000000E+00  0.00000000E+00  0.00000000E+00
  0.00000000E+00  0.00000000E+00  0.00000000E+00
  0.00000000E+00  0.00000000E+00  0.00000000E+00
  0.00000000E+00  0.00000000E+00  0.00000000E+00
  0.00000000E+00  0.00000000E+00  0.00000000E+00
  0.00000000E+00  0.00000000E+00  0.00000000E+00
  0.00000000E+00  0.00000000E+00  0.00000000E+00
  0.00000000E+00  0.00000000E+00  0.00000000E+00
  0.00000000E+00  0.00000000E+00  0.00000000E+00
  0.00000000E+00  0.00000000E+00  0.00000000E+00
  0.00000000E+00  0.00000000E+00  0.00000000E+00
