# Compound: Li48O24S24Fe24. Old comment: FeLi2OS supercell_27
  1.0000000000
 11.7357272400  -0.0574428600   0.0000000000
  0.0548078800  11.2183349000   0.0000000000
  0.0000000000   0.0000000000  11.1956201000
Li    O     S     Fe
   48    24    24    24
Direct
  0.0354170567   0.3627754700   0.3564814850
  0.3687503900   0.3627754700   0.3564814850
  0.7020837233   0.3627754700   0.3564814850
  0.0354170567   0.8627754700   0.3564814850
  0.3687503900   0.8627754700   0.3564814850
  0.7020837233   0.8627754700   0.3564814850
  0.0354170567   0.3627754700   0.8564814850
  0.3687503900   0.3627754700   0.8564814850
  0.7020837233   0.3627754700   0.8564814850
  0.0354170567   0.8627754700   0.8564814850
  0.3687503900   0.8627754700   0.8564814850
  0.7020837233   0.8627754700   0.8564814850
  0.0354170567   0.1127754700   0.1435185150
  0.3687503900   0.1127754700   0.1435185150
  0.7020837233   0.1127754700   0.1435185150
  0.0354170567   0.6127754700   0.1435185150
  0.3687503900   0.6127754700   0.1435185150
  0.7020837233   0.6127754700   0.1435185150
  0.0354170567   0.1127754700   0.6435185150
  0.3687503900   0.1127754700   0.6435185150
  0.7020837233   0.1127754700   0.6435185150
  0.0354170567   0.6127754700   0.6435185150
  0.3687503900   0.6127754700   0.6435185150
  0.7020837233   0.6127754700   0.6435185150
  0.2020945833   0.2189806000   0.2724621500
  0.5354279167   0.2189806000   0.2724621500
  0.8687612500   0.2189806000   0.2724621500
  0.2020945833   0.7189806000   0.2724621500
  0.5354279167   0.7189806000   0.2724621500
  0.8687612500   0.7189806000   0.2724621500
  0.2020945833   0.2189806000   0.7724621500
  0.5354279167   0.2189806000   0.7724621500
  0.8687612500   0.2189806000   0.7724621500
  0.2020945833   0.7189806000   0.7724621500
  0.5354279167   0.7189806000   0.7724621500
  0.8687612500   0.7189806000   0.7724621500
  0.2020945833   0.4689806000   0.2275378500
  0.5354279167   0.4689806000   0.2275378500
  0.8687612500   0.4689806000   0.2275378500
  0.2020945833   0.9689806000   0.2275378500
  0.5354279167   0.9689806000   0.2275378500
  0.8687612500   0.9689806000   0.2275378500
  0.2020945833   0.4689806000   0.7275378500
  0.5354279167   0.4689806000   0.7275378500
  0.8687612500   0.4689806000   0.7275378500
  0.2020945833   0.9689806000   0.7275378500
  0.5354279167   0.9689806000   0.7275378500
  0.8687612500   0.9689806000   0.7275378500
  0.2020906433   0.3676923750   0.3737650900
  0.5354239767   0.3676923750   0.3737650900
  0.8687573100   0.3676923750   0.3737650900
  0.2020906433   0.8676923750   0.3737650900
  0.5354239767   0.8676923750   0.3737650900
  0.8687573100   0.8676923750   0.3737650900
  0.2020906433   0.3676923750   0.8737650900
  0.5354239767   0.3676923750   0.8737650900
  0.8687573100   0.3676923750   0.8737650900
  0.2020906433   0.8676923750   0.8737650900
  0.5354239767   0.8676923750   0.8737650900
  0.8687573100   0.8676923750   0.8737650900
  0.2020906433   0.1176923750   0.1262349100
  0.5354239767   0.1176923750   0.1262349100
  0.8687573100   0.1176923750   0.1262349100
  0.2020906433   0.6176923750   0.1262349100
  0.5354239767   0.6176923750   0.1262349100
  0.8687573100   0.6176923750   0.1262349100
  0.2020906433   0.1176923750   0.6262349100
  0.5354239767   0.1176923750   0.6262349100
  0.8687573100   0.1176923750   0.6262349100
  0.2020906433   0.6176923750   0.6262349100
  0.5354239767   0.6176923750   0.6262349100
  0.8687573100   0.6176923750   0.6262349100
  0.0354275100   0.3701194650   0.1202944750
  0.3687608433   0.3701194650   0.1202944750
  0.7020941767   0.3701194650   0.1202944750
  0.0354275100   0.8701194650   0.1202944750
  0.3687608433   0.8701194650   0.1202944750
  0.7020941767   0.8701194650   0.1202944750
  0.0354275100   0.3701194650   0.6202944750
  0.3687608433   0.3701194650   0.6202944750
  0.7020941767   0.3701194650   0.6202944750
  0.0354275100   0.8701194650   0.6202944750
  0.3687608433   0.8701194650   0.6202944750
  0.7020941767   0.8701194650   0.6202944750
  0.0354275100   0.1201194650   0.3797055250
  0.3687608433   0.1201194650   0.3797055250
  0.7020941767   0.1201194650   0.3797055250
  0.0354275100   0.6201194650   0.3797055250
  0.3687608433   0.6201194650   0.3797055250
  0.7020941767   0.6201194650   0.3797055250
  0.0354275100   0.1201194650   0.8797055250
  0.3687608433   0.1201194650   0.8797055250
  0.7020941767   0.1201194650   0.8797055250
  0.0354275100   0.6201194650   0.8797055250
  0.3687608433   0.6201194650   0.8797055250
  0.7020941767   0.6201194650   0.8797055250
  0.2020938700   0.0131444772   0.4800346250
  0.5354272033   0.0122530900   0.4800346250
  0.8687605367   0.0122530900   0.4800346250
  0.2020938700   0.5122530900   0.4800346250
  0.5354272033   0.5122530900   0.4800346250
  0.8687605367   0.5122530900   0.4800346250
  0.2020938700   0.0122530900   0.9800346250
  0.5354272033   0.0122530900   0.9800346250
  0.8687605367   0.0122530900   0.9800346250
  0.2020938700   0.5122530900   0.9800346250
  0.5354272033   0.5122530900   0.9800346250
  0.8687605367   0.5122530900   0.9800346250
  0.2020938700   0.2622530900   0.0199653750
  0.5354272033   0.2622530900   0.0199653750
  0.8687605367   0.2622530900   0.0199653750
  0.2020938700   0.7622530900   0.0199653750
  0.5354272033   0.7622530900   0.0199653750
  0.8687605367   0.7622530900   0.0199653750
  0.2020938700   0.2622530900   0.5199653750
  0.5354272033   0.2622530900   0.5199653750
  0.8687605367   0.2622530900   0.5199653750
  0.2020938700   0.7622530900   0.5199653750
  0.5354272033   0.7622530900   0.5199653750
  0.8687605367   0.7622530900   0.5199653750
