# Compound: Fe32Li31O16S32. Old comment:
   1.0000000000000000     
     7.6911861600000000   -7.6885056399999998    0.0000000100000000
     7.6884112800000004    7.6911136200000003   -0.0126780500000000
    -3.8335882400000001   -3.8349345399999999   12.8627506399999998
   Fe   Li   O    S 
    32    31    16    32
Direct
  0.9740724686979166  0.0799605700782854  0.1599190388298736
  0.2249117734155880  0.3314808485232936  0.1587702499532780
  0.7255946876191703  0.3301006676414291  0.1582367484021045
  0.9740599372808469  0.5792325017757600  0.1584262479755027
  0.9741893999739986  0.4233475184885441  0.3415607763699980
  0.2321205132354622  0.6761926909456639  0.3442215730915490
  0.7160663422302118  0.6680497485261047  0.3442004987191445
  0.9739431421433490  0.9182397116736382  0.3415604067573373
  0.9739151469160757  0.0766561669962287  0.6584448116964238
  0.2255946709664730  0.3291132950618230  0.6582297578165293
  0.7225662748164029  0.3291510171702063  0.6582284929745590
  0.9742083165847037  0.5817486306261481  0.6584305273085099
  0.9740724187932822  0.4200329867781257  0.8400842069128964
  0.2248820213279503  0.6727587547074878  0.8412272115990858
  0.7255801351725929  0.6717849105433591  0.8417575421223197
  0.9740508239106022  0.9207761839171439  0.8415741364437427
  0.4740744889589130  0.5745413112988756  0.1490455466857281
  0.7232467746619083  0.8272864350518135  0.1587429779469453
  0.2225853075478577  0.8281746992706466  0.1582282934574453
  0.4740642038611831  0.0812094964074498  0.1624434447356033
  0.4697010353623897  0.9131757445703507  0.3444430185874920
  0.7225624285707636  0.1709217495193494  0.3417675567372857
  0.2255913044779793  0.1708075964828504  0.3417745565138727
  0.4784824272871804  0.4312721755311574  0.3444634445789244
  0.4784809586272243  0.5867934436696369  0.6555316109463237
  0.7160350715338916  0.8238250854055164  0.6558107400972519
  0.2321063682939451  0.8319646596939355  0.6557586132630275
  0.4696841772038031  0.0687072914013868  0.6555683421173026
  0.4740600908960612  0.9254856598965151  0.8509552117809043
  0.7232332754530550  0.1685106852116757  0.8412577501358631
  0.2225514391320929  0.1699468594982078  0.8417732592660525
  0.4740502655193899  0.4187861313485802  0.8375548528624752
  0.0805458955569283  0.1433748784573569  0.0009694336921473
  0.8676489567779332  0.8575925353532806  0.0009620775645856
  0.8676596756765406  0.3566128073072978  0.9990265286242498
  0.0805604819084989  0.6423913723785593  0.9990265922116200
  0.1114651180561334  0.3878690781933881  0.4999834187073358
  0.3072158486186317  0.5836869815994199  0.4999957395599313
  0.8177227459913851  0.6059200275825223  0.4999998169934079
  0.6175549226257910  0.4054447690768522  0.5000022943744417
  0.0829599622076539  0.1408412702191876  0.5000167233848957
  0.8735964537923642  0.8521618128850924  0.5000111487554689
  0.8651931504068622  0.3591718523379454  0.4999990194495049
  0.0745691518005930  0.6478084106172848  0.4999903380160053
  0.1166745331255579  0.3924949386475871 -0.0003352864487994
  0.3285055983510099  0.6037999015363760 -0.0034025581064768
  0.8315434741988627  0.6071902718696441 -0.0003436943626318
  0.6196629378985116  0.3927983298236138 -0.0034068113044692
  0.5805953791425280  0.6433956035550746 -0.0036220876682587
  0.3676195585336685  0.3529513780608930  0.9963951019147465
  0.3676317129348846  0.8565403099233111  0.0036066552277080
  0.5806102567836215  0.1470048032739301  1.0036342510103586
  0.6412867054614717  0.9166464090910006  0.5000068673840994
  0.8367506772908165  0.1121761812195675  0.4999889662827233
  0.3306452177077565  0.0945339043205373  0.5000109449723341
  0.1303971786390174  0.8941230894481428  0.5000031337963288
  0.3705780616160483  0.3517752807876455  0.4999920528643775
  0.4746136735570013  0.7505347831776062  0.4999997111058785
  0.5775520970774098  0.1482089684254925  0.5000034675643826
  0.6196772737051538  0.8961929991976921  1.0033779285493316
  0.8315472739624172  0.1075538044755232  1.0003628224956469
  0.3285148280352098  0.1071944003377273  1.0033965052664988
  0.1166766230392301  0.8928490089037059  1.0003531535245871
  0.2259717474138456  0.2460114363376448  0.5000026739127569
  0.4740817100671010  0.4976733768560880  0.9953688455116670
  0.9740946672606953  0.4996339673363859 -0.0007286862840096
  0.2285159990150931  0.7407847726732231  0.4999917804734076
  0.2240365397861332  0.2494272451737611  0.0002805475204401
  0.4647037862791443  0.5051545369750604  0.4999972341086994
  0.9698946178080760  0.5024687818479772  0.4999960764820073
  0.2240383587058002  0.7491546071445361  0.9997193065489384
  0.7194156475837240  0.7593014112899300  0.5000063235951125
  0.9740943906718208  1.0003659990809326  1.0007309707769922
  0.4740847236033305  0.0022908352642964  0.0046297937230835
  0.7221796659925388  0.2539758605745234  0.4999981246358027
  0.7241578573529414  0.7508518890895758  0.0002646282769977
  0.9782461886549250  0.9975291175225841  0.5000027511939740
  0.4835352292921157 -0.0054048712092676  0.5000061682066292
  0.7241584713122831  0.2505922676977185  0.9997336838681571
  0.9730902658094449  0.3255434790141681  0.1515453180197394
  0.2228515557001056  0.5753773513754989  0.1518459444496540
  0.7252839591624417  0.5764823162013895  0.1518329880125545
  0.9750933860325052  0.8259921678401423  0.1515372123067289
  0.9740815179512853  0.1748175500521734  0.3496375353243464
  0.2183262094821095  0.4174978849536026  0.3462231923677353
  0.7231362102039666  0.4241554294816148  0.3464800165263353
  0.9740038728338295  0.6735897513273151  0.3471841135930201
  0.9740819904734990  0.3251905838971264  0.6503657068607437
  0.2183265458215322  0.5712780163459387  0.6537708551352200
  0.7231346062636808  0.5776704368161734  0.6535167198707625
  0.9740162019385572  0.8263978326627466  0.6528158891639070
  0.9750930211414379  0.1744599786927183  0.8484644386390802
  0.2233685632231282  0.4219690761465013  0.8478714538929329
  0.7248061706120463  0.4259215159761200  0.8478752281723821
  0.9730943638037090  0.6739994023830889  0.8484506393750346
  0.4757442835458952  0.8271229969404813  0.1525392332042461
  0.7248016519043300  0.0780377422687989  0.1521218301522620
  0.2233708159632068  0.0741000223058199  0.1521314236570918
  0.4724414072478950  0.3253558338411275  0.1525535527621697
  0.4740085172982625  0.6647158978090210  0.3296036830386057
  0.7298631236198829  0.9287419108788060  0.3461916877918552
  0.2250385050319963  0.9223394033533636  0.3464764643216406
  0.4740739218059430  0.1744003816552158  0.3489639260757311
  0.4740051911364973  0.8351064764281483  0.6703953257067693
  0.7298678616094915  0.0825611463975055  0.6538119084069353
  0.2250366589368384  0.0758565817603939  0.6535276340185943
  0.4740714876367837  0.3254501151454373  0.6510359293791791
  0.4724414839914872  0.6728050693066943  0.8474437130006057
  0.7252894819236994  0.9246553065801223  0.8481699132915682
  0.2228532696952242  0.9235270393077025  0.8481470647823658
  0.4757498249682868  0.1745904668972966  0.8474664463853971

             NaN             NaN             NaN
             NaN             NaN             NaN
             NaN             NaN             NaN
             NaN             NaN             NaN
             NaN             NaN             NaN
             NaN             NaN             NaN
             NaN             NaN             NaN
             NaN             NaN             NaN
             NaN             NaN             NaN
             NaN             NaN             NaN
             NaN             NaN             NaN
             NaN             NaN             NaN
             NaN             NaN             NaN
             NaN             NaN             NaN
             NaN             NaN             NaN
             NaN             NaN             NaN
             NaN             NaN             NaN
             NaN             NaN             NaN
             NaN             NaN             NaN
             NaN             NaN             NaN
             NaN             NaN             NaN
             NaN             NaN             NaN
             NaN             NaN             NaN
             NaN             NaN             NaN
             NaN             NaN             NaN
             NaN             NaN             NaN
             NaN             NaN             NaN
             NaN             NaN             NaN
             NaN             NaN             NaN
             NaN             NaN             NaN
             NaN             NaN             NaN
             NaN             NaN             NaN
             NaN             NaN             NaN
             NaN             NaN             NaN
             NaN             NaN             NaN
             NaN             NaN             NaN
             NaN             NaN             NaN
             NaN             NaN             NaN
             NaN             NaN             NaN
             NaN             NaN             NaN
             NaN             NaN             NaN
             NaN             NaN             NaN
             NaN             NaN             NaN
             NaN             NaN             NaN
             NaN             NaN             NaN
             NaN             NaN             NaN
             NaN             NaN             NaN
             NaN             NaN             NaN
             NaN             NaN             NaN
             NaN             NaN             NaN
             NaN             NaN             NaN
             NaN             NaN             NaN
             NaN             NaN             NaN
             NaN             NaN             NaN
             NaN             NaN             NaN
             NaN             NaN             NaN
             NaN             NaN             NaN
             NaN             NaN             NaN
             NaN             NaN             NaN
             NaN             NaN             NaN
             NaN             NaN             NaN
             NaN             NaN             NaN
             NaN             NaN             NaN
             NaN             NaN             NaN
             NaN             NaN             NaN
             NaN             NaN             NaN
             NaN             NaN             NaN
             NaN             NaN             NaN
             NaN             NaN             NaN
             NaN             NaN             NaN
             NaN             NaN             NaN
             NaN             NaN             NaN
             NaN             NaN             NaN
             NaN             NaN             NaN
             NaN             NaN             NaN
             NaN             NaN             NaN
             NaN             NaN             NaN
             NaN             NaN             NaN
             NaN             NaN             NaN
             NaN             NaN             NaN
             NaN             NaN             NaN
             NaN             NaN             NaN
             NaN             NaN             NaN
             NaN             NaN             NaN
             NaN             NaN             NaN
             NaN             NaN             NaN
             NaN             NaN             NaN
             NaN             NaN             NaN
             NaN             NaN             NaN
             NaN             NaN             NaN
             NaN             NaN             NaN
             NaN             NaN             NaN
             NaN             NaN             NaN
             NaN             NaN             NaN
             NaN             NaN             NaN
             NaN             NaN             NaN
             NaN             NaN             NaN
             NaN             NaN             NaN
             NaN             NaN             NaN
             NaN             NaN             NaN
             NaN             NaN             NaN
             NaN             NaN             NaN
             NaN             NaN             NaN
             NaN             NaN             NaN
             NaN             NaN             NaN
             NaN             NaN             NaN
             NaN             NaN             NaN
             NaN             NaN             NaN
             NaN             NaN             NaN
             NaN             NaN             NaN
             NaN             NaN             NaN
