# Compound: Fe32Li31O16S32. Old comment: Fe32Li31O16S32
  1.0000000000
  7.6911861600  -7.6885056400   0.0000000100
  7.6884112800   7.6911136200  -0.0126780500
 -3.8335882400  -3.8349345400  12.8627506400
Fe    Li    O     S
   32    31    16    32
Direct
  0.9740503330   0.0793485441   0.1586877797
  0.2246240551   0.3298863268   0.1594279091
  0.7242496962   0.3287699248   0.1585198641
  0.9742147960   0.5796735154   0.1593872450
  0.9745748700   0.4213431958   0.3413663098
  0.2281724244   0.6773007472   0.3447403264
  0.7206449667   0.6677402093   0.3447400714
  0.9734013171   0.9198758506   0.3413234043
  0.9733943586   0.0785522868   0.6586896653
  0.2251154055   0.3300552740   0.6587470736
  0.7231340569   0.3288045146   0.6587089046
  0.9745942221   0.5800122729   0.6586361574
  0.9740490544   0.4206247182   0.8412974112
  0.2246179998   0.6704589373   0.8405673333
  0.7242628271   0.6702441907   0.8414762270
  0.9742189737   0.9202654936   0.8406114245
  0.4741756705   0.5779666769   0.1564258231
  0.7234982328   0.8296201332   0.1594289900
  0.2236961956   0.8297668618   0.1584879657
  0.4740997098   0.0795062361   0.1591713820
  0.4691514191   0.9184499289   0.3446409821
  0.7231297039   0.1701001844   0.3412965696
  0.2251088787   0.1712758871   0.3412464151
  0.4787115466   0.4255526096   0.3446671160
  0.4787228394   0.5809026548   0.6553441431
  0.7206443914   0.8230053892   0.6552714290
  0.2281784644   0.8325545591   0.6552783987
  0.4691493150   0.0738119966   0.6553749009
  0.4741952187   0.9215255582   0.8435806137
  0.7234943857   0.1701562779   0.8405693876
  0.2236828812   0.1712256202   0.8414985941
  0.4741009652   0.4203109285   0.8408197292
  0.0810783037   0.1433088618   0.0002718950
  0.8670728827   0.8570027896   0.0001791172
  0.8670743521   0.3568043903   0.9997983447
  0.0810799107   0.6430323807   0.9997133677
  0.1175587188   0.3933898772   0.5000069000
  0.3302518349   0.6060081874   0.5000028365
  0.8253620808   0.6049075704   0.5000025952
  0.6191466999   0.3986635938   0.5000146396
  0.0803496769   0.1439129550   0.5000126066
  0.8680573185   0.8567687739   0.5000117218
  0.8676881327   0.3562392814   0.5000044943
  0.0800688765   0.6436552469   0.5000109578
  0.1171902465   0.3933706532   0.0006357632
  0.3305716279   0.6065205999   0.0002354485
  0.8311258174   0.6073662232   0.0006512453
  0.6176492864   0.3936646940   0.0001836344
  0.5805045188   0.6434569388   0.0001087474
  0.3677641925   0.3564146947   0.9999133040
  0.3677650972   0.8564991058   0.0000668945
  0.5805074309   0.1433402458   0.9998891091
  0.6179161475   0.8940409234   0.5000048583
  0.8305836608   0.1067299870   0.5000008128
  0.3289394542   0.1013717226   0.5000065318
  0.1228575602   0.8952680445   0.5000124215
  0.3674995757   0.3558499030   0.4999995818
  0.4743365640   0.7498055828   0.5000209886
  0.5802765259   0.1441874085   0.5000050924
  0.6176467096   0.8934816295   0.9998195782
  0.8311272998   0.1066990901   0.9993322812
  0.3305715751   0.1062687375   0.9997425618
  0.1171843757   0.8927298243   0.9993517589
  0.2242581458   0.2492011247   0.5000078762
  0.4740957932   0.4999217485   0.9998723112
  0.9741221822   0.5001759953   0.0003616008
  0.2241501650   0.7468504550   0.5000131756
  0.2244571987   0.2503036159   0.0004235363
  0.4707493061   0.4998052664   0.5000126603
  0.9732872710   0.5001040482   0.5000098026
  0.2244576820   0.7498780499   0.9995504414
  0.7241003161   0.7533667107   0.5000183853
  0.9741219723   0.9998009059   0.9996089619
  0.4740957332   0.0000399758   0.0001057711
  0.7238412663   0.2508058148   0.5000119108
  0.7237595940   0.7500974150   0.0003918239
  0.9749236262  -0.0000102381   0.5000141077
  0.4772357062   0.0000988669   0.5000128449
  0.7237594992   0.2496845497   0.9995792714
  0.9741580641   0.3255272360   0.1516708658
  0.2241652434   0.5770181695   0.1535064956
  0.7238471293   0.5765434219   0.1534864448
  0.9740997801   0.8260519668   0.1516027216
  0.9740860364   0.1739761250   0.3479258061
  0.2234531858   0.4233425346   0.3480470607
  0.7254548980   0.4217156416   0.3463710690
  0.9738013501   0.6736836486   0.3475621762
  0.9740897702   0.3260484458   0.6520735043
  0.2234415629   0.5753116659   0.6519570568
  0.7254740729   0.5753643755   0.6536318325
  0.9738095462   0.8261230328   0.6524505528
  0.9741020351   0.1744206004   0.8483912349
  0.2239205037   0.4244177556   0.8486254638
  0.7244067673   0.4241303716   0.8486103024
  0.9741660984   0.6738803122   0.8483172615
  0.4739965162   0.8266087101   0.1532425507
  0.7244015017   0.0755162460   0.1513771733
  0.2239256389   0.0757821454   0.1513565140
  0.4742279840   0.3267676169   0.1532579490
  0.4741182374   0.6667138121   0.3335174066
  0.7247719528   0.9247194032   0.3480612443
  0.2226917549   0.9246956096   0.3463407682
  0.4741986604   0.1739482110   0.3473849409
  0.4741187597   0.8331973033   0.6664801882
  0.7247812481   0.0766481193   0.6519453209
  0.2226845271   0.0783404767   0.6536649121
  0.4741941033   0.3265619246   0.6526141384
  0.4742259978   0.6735312418   0.8467345413
  0.7238581448   0.9230589933   0.8465114934
  0.2241550502   0.9235101892   0.8464869725
  0.4739904646   0.1733397168   0.8467528174
