# Compound: Li128Fe64S64O64. Old comment: FeLi2OS supercell_5
  1.0000000000
 15.8906492000   0.0000000000   0.0000000000
  0.0000000000  15.8906492000   0.0000000000
  0.0000000000   0.0000000000  15.4145542600
Li    Fe    S     O
  128    64    64    64
Direct
  0.1250000000   0.1250000000   0.3750000000
  0.3750000000   0.1250000000   0.3750000000
  0.6250000000   0.1250000000   0.3750000000
  0.8750000000   0.1250000000   0.3750000000
  0.1250000000   0.3750000000   0.3750000000
  0.3750000000   0.3750000000   0.3750000000
  0.6250000000   0.3750000000   0.3750000000
  0.8750000000   0.3750000000   0.3750000000
  0.1250000000   0.6250000000   0.3750000000
  0.3750000000   0.6250000000   0.3750000000
  0.6250000000   0.6250000000   0.3750000000
  0.8750000000   0.6250000000   0.3750000000
  0.1250000000   0.8750000000   0.3750000000
  0.3750000000   0.8750000000   0.3750000000
  0.6250000000   0.8750000000   0.3750000000
  0.8750000000   0.8750000000   0.3750000000
  0.1250000000   0.1250000000   0.8750000000
  0.3750000000   0.1250000000   0.8750000000
  0.6250000000   0.1250000000   0.8750000000
  0.8750000000   0.1250000000   0.8750000000
  0.1250000000   0.3750000000   0.8750000000
  0.3750000000   0.3750000000   0.8750000000
  0.6250000000   0.3750000000   0.8750000000
  0.8750000000   0.3750000000   0.8750000000
  0.1250000000   0.6250000000   0.8750000000
  0.3750000000   0.6250000000   0.8750000000
  0.6250000000   0.6250000000   0.8750000000
  0.8750000000   0.6250000000   0.8750000000
  0.1250000000   0.8750000000   0.8750000000
  0.3750000000   0.8750000000   0.8750000000
  0.6250000000   0.8750000000   0.8750000000
  0.8750000000   0.8750000000   0.8750000000
  0.1250000000   0.1250000000   0.1250000000
  0.3750000000   0.1250000000   0.1250000000
  0.6250000000   0.1250000000   0.1250000000
  0.8750000000   0.1250000000   0.1250000000
  0.1250000000   0.3750000000   0.1250000000
  0.3750000000   0.3750000000   0.1250000000
  0.6250000000   0.3750000000   0.1250000000
  0.8750000000   0.3750000000   0.1250000000
  0.1250000000   0.6250000000   0.1250000000
  0.3750000000   0.6250000000   0.1250000000
  0.6250000000   0.6250000000   0.1250000000
  0.8750000000   0.6250000000   0.1250000000
  0.1250000000   0.8750000000   0.1250000000
  0.3750000000   0.8750000000   0.1250000000
  0.6250000000   0.8750000000   0.1250000000
  0.8750000000   0.8750000000   0.1250000000
  0.1250000000   0.1250000000   0.6250000000
  0.3750000000   0.1250000000   0.6250000000
  0.6250000000   0.1250000000   0.6250000000
  0.8750000000   0.1250000000   0.6250000000
  0.1250000000   0.3750000000   0.6250000000
  0.3750000000   0.3750000000   0.6250000000
  0.6250000000   0.3750000000   0.6250000000
  0.8750000000   0.3750000000   0.6250000000
  0.1250000000   0.6250000000   0.6250000000
  0.3750000000   0.6250000000   0.6250000000
  0.6250000000   0.6250000000   0.6250000000
  0.8750000000   0.6250000000   0.6250000000
  0.1250000000   0.8750000000   0.6250000000
  0.3750000000   0.8750000000   0.6250000000
  0.6250000000   0.8750000000   0.6250000000
  0.8750000000   0.8750000000   0.6250000000
  0.1250000000   0.0000000000   0.2500000000
  0.3750000000   0.0000000000   0.2500000000
  0.6250000000   0.0000000000   0.2500000000
  0.8750000000   0.0000000000   0.2500000000
  0.1250000000   0.2500000000   0.2500000000
  0.3750000000   0.2500000000   0.2500000000
  0.6250000000   0.2500000000   0.2500000000
  0.8750000000   0.2500000000   0.2500000000
  0.1250000000   0.5000000000   0.2500000000
  0.3750000000   0.5000000000   0.2500000000
  0.6250000000   0.5000000000   0.2500000000
  0.8750000000   0.5000000000   0.2500000000
  0.1250000000   0.7500000000   0.2500000000
  0.3750000000   0.7500000000   0.2500000000
  0.6250000000   0.7500000000   0.2500000000
  0.8750000000   0.7500000000   0.2500000000
  0.1250000000   0.0000000000   0.7500000000
  0.3750000000   0.0000000000   0.7500000000
  0.6250000000   0.0000000000   0.7500000000
  0.8750000000   0.0000000000   0.7500000000
  0.1250000000   0.2500000000   0.7500000000
  0.3750000000   0.2500000000   0.7500000000
  0.6250000000   0.2500000000   0.7500000000
  0.8750000000   0.2500000000   0.7500000000
  0.1250000000   0.5000000000   0.7500000000
  0.3750000000   0.5000000000   0.7500000000
  0.6250000000   0.5000000000   0.7500000000
  0.8750000000   0.5000000000   0.7500000000
  0.1250000000   0.7500000000   0.7500000000
  0.3750000000   0.7500000000   0.7500000000
  0.6250000000   0.7500000000   0.7500000000
  0.8750000000   0.7500000000   0.7500000000
  0.0000000000   0.1250000000   0.0000000000
  0.2500000000   0.1250000000   0.0000000000
  0.5000000000   0.1250000000   0.0000000000
  0.7500000000   0.1250000000   0.0000000000
  0.0000000000   0.3750000000   0.0000000000
  0.2500000000   0.3750000000   0.0000000000
  0.5000000000   0.3750000000   0.0000000000
  0.7500000000   0.3750000000   0.0000000000
  0.0000000000   0.6250000000   0.0000000000
  0.2500000000   0.6250000000   0.0000000000
  0.5000000000   0.6250000000   0.0000000000
  0.7500000000   0.6250000000   0.0000000000
  0.0000000000   0.8750000000   0.0000000000
  0.2500000000   0.8750000000   0.0000000000
  0.5000000000   0.8750000000   0.0000000000
  0.7500000000   0.8750000000   0.0000000000
  0.0000000000   0.1250000000   0.5000000000
  0.2500000000   0.1250000000   0.5000000000
  0.5000000000   0.1250000000   0.5000000000
  0.7500000000   0.1250000000   0.5000000000
  0.0000000000   0.3750000000   0.5000000000
  0.2500000000   0.3750000000   0.5000000000
  0.5000000000   0.3750000000   0.5000000000
  0.7500000000   0.3750000000   0.5000000000
  0.0000000000   0.6250000000   0.5000000000
  0.2500000000   0.6250000000   0.5000000000
  0.5000000000   0.6250000000   0.5000000000
  0.7500000000   0.6250000000   0.5000000000
  0.0000000000   0.8750000000   0.5000000000
  0.2500000000   0.8750000000   0.5000000000
  0.5000000000   0.8750000000   0.5000000000
  0.7500000000   0.8750000000   0.5000000000
  0.1250000000   0.0000000000   0.0000000000
  0.3750000000   0.0000000000   0.0000000000
  0.6250000000   0.0000000000   0.0000000000
  0.8750000000   0.0000000000   0.0000000000
  0.1250000000   0.2500000000   0.0000000000
  0.3750000000   0.2500000000   0.0000000000
  0.6250000000   0.2500000000   0.0000000000
  0.8750000000   0.2500000000   0.0000000000
  0.1250000000   0.5000000000   0.0000000000
  0.3750000000   0.5000000000   0.0000000000
  0.6250000000   0.5000000000   0.0000000000
  0.8750000000   0.5000000000   0.0000000000
  0.1250000000   0.7500000000   0.0000000000
  0.3750000000   0.7500000000   0.0000000000
  0.6250000000   0.7500000000   0.0000000000
  0.8750000000   0.7500000000   0.0000000000
  0.1250000000   0.0000000000   0.5000000000
  0.3750000000   0.0000000000   0.5000000000
  0.6250000000   0.0000000000   0.5000000000
  0.8750000000   0.0000000000   0.5000000000
  0.1250000000   0.2500000000   0.5000000000
  0.3750000000   0.2500000000   0.5000000000
  0.6250000000   0.2500000000   0.5000000000
  0.8750000000   0.2500000000   0.5000000000
  0.1250000000   0.5000000000   0.5000000000
  0.3750000000   0.5000000000   0.5000000000
  0.6250000000   0.5000000000   0.5000000000
  0.8750000000   0.5000000000   0.5000000000
  0.1250000000   0.7500000000   0.5000000000
  0.3750000000   0.7500000000   0.5000000000
  0.6250000000   0.7500000000   0.5000000000
  0.8750000000   0.7500000000   0.5000000000
  0.0000000000   0.1250000000   0.2500000000
  0.2500000000   0.1250000000   0.2500000000
  0.5000000000   0.1250000000   0.2500000000
  0.7500000000   0.1250000000   0.2500000000
  0.0000000000   0.3750000000   0.2500000000
  0.2500000000   0.3750000000   0.2500000000
  0.5000000000   0.3750000000   0.2500000000
  0.7500000000   0.3750000000   0.2500000000
  0.0000000000   0.6250000000   0.2500000000
  0.2500000000   0.6250000000   0.2500000000
  0.5000000000   0.6250000000   0.2500000000
  0.7500000000   0.6250000000   0.2500000000
  0.0000000000   0.8750000000   0.2500000000
  0.2500000000   0.8750000000   0.2500000000
  0.5000000000   0.8750000000   0.2500000000
  0.7500000000   0.8750000000   0.2500000000
  0.0000000000   0.1250000000   0.7500000000
  0.2500000000   0.1250000000   0.7500000000
  0.5000000000   0.1250000000   0.7500000000
  0.7500000000   0.1250000000   0.7500000000
  0.0000000000   0.3750000000   0.7500000000
  0.2500000000   0.3750000000   0.7500000000
  0.5000000000   0.3750000000   0.7500000000
  0.7500000000   0.3750000000   0.7500000000
  0.0000000000   0.6250000000   0.7500000000
  0.2500000000   0.6250000000   0.7500000000
  0.5000000000   0.6250000000   0.7500000000
  0.7500000000   0.6250000000   0.7500000000
  0.0000000000   0.8750000000   0.7500000000
  0.2500000000   0.8750000000   0.7500000000
  0.5000000000   0.8750000000   0.7500000000
  0.7500000000   0.8750000000   0.7500000000
  0.0004516981   0.0000000000   0.3754516981
  0.2500000000   0.0000000000   0.3750000000
  0.5000000000   0.0000000000   0.3750000000
  0.7500000000   0.0000000000   0.3750000000
  0.0000000000   0.2500000000   0.3750000000
  0.2500000000   0.2500000000   0.3750000000
  0.5000000000   0.2500000000   0.3750000000
  0.7500000000   0.2500000000   0.3750000000
  0.0000000000   0.5000000000   0.3750000000
  0.2500000000   0.5000000000   0.3750000000
  0.5000000000   0.5000000000   0.3750000000
  0.7500000000   0.5000000000   0.3750000000
  0.0000000000   0.7500000000   0.3750000000
  0.2500000000   0.7500000000   0.3750000000
  0.5000000000   0.7500000000   0.3750000000
  0.7500000000   0.7500000000   0.3750000000
  0.0000000000   0.0000000000   0.8750000000
  0.2500000000   0.0000000000   0.8750000000
  0.5000000000   0.0000000000   0.8750000000
  0.7500000000   0.0000000000   0.8750000000
  0.0000000000   0.2500000000   0.8750000000
  0.2500000000   0.2500000000   0.8750000000
  0.5000000000   0.2500000000   0.8750000000
  0.7500000000   0.2500000000   0.8750000000
  0.0000000000   0.5000000000   0.8750000000
  0.2500000000   0.5000000000   0.8750000000
  0.5000000000   0.5000000000   0.8750000000
  0.7500000000   0.5000000000   0.8750000000
  0.0000000000   0.7500000000   0.8750000000
  0.2500000000   0.7500000000   0.8750000000
  0.5000000000   0.7500000000   0.8750000000
  0.7500000000   0.7500000000   0.8750000000
  0.0000000000   0.0000000000   0.1250000000
  0.2500000000   0.0000000000   0.1250000000
  0.5000000000   0.0000000000   0.1250000000
  0.7500000000   0.0000000000   0.1250000000
  0.0000000000   0.2500000000   0.1250000000
  0.2500000000   0.2500000000   0.1250000000
  0.5000000000   0.2500000000   0.1250000000
  0.7500000000   0.2500000000   0.1250000000
  0.0000000000   0.5000000000   0.1250000000
  0.2500000000   0.5000000000   0.1250000000
  0.5000000000   0.5000000000   0.1250000000
  0.7500000000   0.5000000000   0.1250000000
  0.0000000000   0.7500000000   0.1250000000
  0.2500000000   0.7500000000   0.1250000000
  0.5000000000   0.7500000000   0.1250000000
  0.7500000000   0.7500000000   0.1250000000
  0.0000000000   0.0000000000   0.6250000000
  0.2500000000   0.0000000000   0.6250000000
  0.5000000000   0.0000000000   0.6250000000
  0.7500000000   0.0000000000   0.6250000000
  0.0000000000   0.2500000000   0.6250000000
  0.2500000000   0.2500000000   0.6250000000
  0.5000000000   0.2500000000   0.6250000000
  0.7500000000   0.2500000000   0.6250000000
  0.0000000000   0.5000000000   0.6250000000
  0.2500000000   0.5000000000   0.6250000000
  0.5000000000   0.5000000000   0.6250000000
  0.7500000000   0.5000000000   0.6250000000
  0.0000000000   0.7500000000   0.6250000000
  0.2500000000   0.7500000000   0.6250000000
  0.5000000000   0.7500000000   0.6250000000
  0.7500000000   0.7500000000   0.6250000000
  0.1250000000   0.1250000000   0.0000000000
  0.3750000000   0.1250000000   0.0000000000
  0.6250000000   0.1250000000   0.0000000000
  0.8750000000   0.1250000000   0.0000000000
  0.1250000000   0.3750000000   0.0000000000
  0.3750000000   0.3750000000   0.0000000000
  0.6250000000   0.3750000000   0.0000000000
  0.8750000000   0.3750000000   0.0000000000
  0.1250000000   0.6250000000   0.0000000000
  0.3750000000   0.6250000000   0.0000000000
  0.6250000000   0.6250000000   0.0000000000
  0.8750000000   0.6250000000   0.0000000000
  0.1250000000   0.8750000000   0.0000000000
  0.3750000000   0.8750000000   0.0000000000
  0.6250000000   0.8750000000   0.0000000000
  0.8750000000   0.8750000000   0.0000000000
  0.1250000000   0.1250000000   0.5000000000
  0.3750000000   0.1250000000   0.5000000000
  0.6250000000   0.1250000000   0.5000000000
  0.8750000000   0.1250000000   0.5000000000
  0.1250000000   0.3750000000   0.5000000000
  0.3750000000   0.3750000000   0.5000000000
  0.6250000000   0.3750000000   0.5000000000
  0.8750000000   0.3750000000   0.5000000000
  0.1250000000   0.6250000000   0.5000000000
  0.3750000000   0.6250000000   0.5000000000
  0.6250000000   0.6250000000   0.5000000000
  0.8750000000   0.6250000000   0.5000000000
  0.1250000000   0.8750000000   0.5000000000
  0.3750000000   0.8750000000   0.5000000000
  0.6250000000   0.8750000000   0.5000000000
  0.8750000000   0.8750000000   0.5000000000
  0.1250000000   0.1250000000   0.2500000000
  0.3750000000   0.1250000000   0.2500000000
  0.6250000000   0.1250000000   0.2500000000
  0.8750000000   0.1250000000   0.2500000000
  0.1250000000   0.3750000000   0.2500000000
  0.3750000000   0.3750000000   0.2500000000
  0.6250000000   0.3750000000   0.2500000000
  0.8750000000   0.3750000000   0.2500000000
  0.1250000000   0.6250000000   0.2500000000
  0.3750000000   0.6250000000   0.2500000000
  0.6250000000   0.6250000000   0.2500000000
  0.8750000000   0.6250000000   0.2500000000
  0.1250000000   0.8750000000   0.2500000000
  0.3750000000   0.8750000000   0.2500000000
  0.6250000000   0.8750000000   0.2500000000
  0.8750000000   0.8750000000   0.2500000000
  0.1250000000   0.1250000000   0.7500000000
  0.3750000000   0.1250000000   0.7500000000
  0.6250000000   0.1250000000   0.7500000000
  0.8750000000   0.1250000000   0.7500000000
  0.1250000000   0.3750000000   0.7500000000
  0.3750000000   0.3750000000   0.7500000000
  0.6250000000   0.3750000000   0.7500000000
  0.8750000000   0.3750000000   0.7500000000
  0.1250000000   0.6250000000   0.7500000000
  0.3750000000   0.6250000000   0.7500000000
  0.6250000000   0.6250000000   0.7500000000
  0.8750000000   0.6250000000   0.7500000000
  0.1250000000   0.8750000000   0.7500000000
  0.3750000000   0.8750000000   0.7500000000
  0.6250000000   0.8750000000   0.7500000000
  0.8750000000   0.8750000000   0.7500000000
