# No comment
0
Gamma
            4             6             6
  0.000000000   0.000000000   0.000000000
