# Compound: Li4OS4Fe3. Old comment: Fe3Li4OS4
  1.0000000000
  9.2703326900  -0.1271289600  -0.0528753200
  4.7873941900   5.1462692700  -0.0425726500
  4.7873941900   3.5981693900   3.6795484600
Li    O     S     Fe
    4     1     4     3
Direct
  0.8607969000   0.2310027800   0.3701168600
  0.1392031000   0.6298831400   0.7689972200
  0.5828379000   0.8016175300   0.9403827000
  0.4171621000   0.0596173000   0.1983824700
  0.0000000000   0.4309388500   0.5690611500
  0.7844543600   0.8640448800   0.0029385000
  0.2155456400   0.9970615000   0.1359551200
  0.6568488500   0.1829615300   0.3216673200
  0.3431511500   0.6783326800   0.8170384700
  0.7073248200   0.5263419700   0.6644936000
  0.2926751800   0.3355064000   0.4736580300
 -0.0000000000   0.9309044400   0.0690955600
