# Compound: Li2O2S2Fe3. Old comment: Fe3
   1.00000000000000     
     3.8367894900000001    0.0000000000000000    0.0000000000000000
     0.0000000000000000    5.6633545800000000    0.0627447000000000
     0.0000000000000000   -0.1484157600000000    5.6617572200000001
   Li   O    S    Fe
     2     2     2     3
Direct
  0.3153988400000003  0.5000000000000000  0.0000000000000000
  0.3153988400000003  0.0000000000000000  0.5000000000000000
  0.3184471699999989  0.2505532500000029  0.7494467499999971
  0.3184471699999989  0.7494467499999971  0.2505532500000029
  0.8183965300000011  0.2361894300000031  0.2361894300000031
  0.8183965300000011  0.7638105699999969  0.7638105699999969
  0.8186145299999978  0.6781485400000022  0.3218514599999978
  0.8186145299999978  0.3218514599999978  0.6781485400000022
  0.3219338700000023  0.0000000000000000  0.0000000000000000
 
  0.00000000E+00  0.00000000E+00  0.00000000E+00
  0.00000000E+00  0.00000000E+00  0.00000000E+00
  0.00000000E+00  0.00000000E+00  0.00000000E+00
  0.00000000E+00  0.00000000E+00  0.00000000E+00
  0.00000000E+00  0.00000000E+00  0.00000000E+00
  0.00000000E+00  0.00000000E+00  0.00000000E+00
  0.00000000E+00  0.00000000E+00  0.00000000E+00
  0.00000000E+00  0.00000000E+00  0.00000000E+00
  0.00000000E+00  0.00000000E+00  0.00000000E+00
