# Compound: Fe24Li31O16S24. Old comment:
   1.0000000000000000     
     7.8866538400000001   -7.9475566999999998    0.0601846200000000
     7.3433505600000002    7.9467915400000004   -2.8792872599999999
    -0.0478291200000000   -0.1071026000000000   10.5527142699999992
   Fe   Li   O    S 
    24    31    16    24
Direct
  0.2623687476583022  0.6626268832296515  0.6022148707505030
  0.2355140484824035  0.3349085192267214  0.3989361972779900
  0.1241320328869896  0.3265240350920061  0.8023812545137159
  0.3852665993430653  0.5834341729265967  0.8150846622636456
  0.8748726771743935  0.1740000085049218  0.1969652461906059
  0.1252427755271114  0.4214004424469140  0.1852329148076025
  0.0154280231009572  0.9160067969097357  0.6014976604180019
  0.9847774769004999  0.5849609813258624  0.3992870887937492
  0.8654670960654317  0.5724150508309294  0.8027032075262255
  0.1268217379360080  0.8294325029522459  0.8152174489788949
  0.6269925709197983  0.4262659566276131  0.1977526211560302
  0.8730004323954940  0.6693115723197816  0.1858408063943976
  0.7618667139721447  0.1624805914310732  0.6022424220874714
  0.7351247672685470  0.8343914584658708  0.3985128628564806
  0.6218143078987894  0.8162116685018593  0.8027684289801951
  0.8755539003156740  0.0806351573274583  0.8153264122718717
  0.3767178523520531  0.6759892630312374  0.1968725185675800
  0.6233674684583493  0.9200231420335736  0.1861468750518215
  0.5202900473570037  0.4215379144782821  0.6039673774526240
  0.4839047234787720  0.0844125422486542  0.3998431250687784
  0.3758487524943818  0.0748252827957196  0.8023862753134744
  0.6296949624741287  0.3388205735536937  0.8151157421680856
  0.1250640511533185  0.9244179247026829  0.1970659819212271
  0.3749272385285627  0.1713858136358297  0.1852872815503881
  0.4808355122401613  0.4801613419638948  0.9983260659118155
  0.0227557700112363  0.5254043492967995  0.9970895422217178
  0.9786156211194643  0.3822976384361635  0.6076826578519021
  0.0210732481646822  0.1202042749833348  0.3929389642942732
  0.8772683091112304  0.3367847290195181  0.8470240997993685
  0.1225098673981999  0.5680522647996749  0.7774139399520267
  0.1238686611656260  0.1628156639037654  0.1550044522997628
  0.3780445853161712  0.4332986277817350  0.2239322139261949
  0.2265062476089070  0.7246452520673364  0.0036489325350907
  0.7647108921193831  0.7624786965681153  0.9910902115759214
  0.7193641868701510  0.6225630468231459  0.6123222855399821
  0.7737112109690412  0.3709966602123052  0.3924445457485634
  0.8741551352931548  0.8165096636776235  0.7693872376306375
  0.8750023568490928  0.4114956471193010  0.1546386761441637
  0.1267427909706151  0.6831717881671243  0.2261068361714966
  0.9736490311666859  0.9743654623349149  0.0027449820450709
  0.5262184621763998  0.0222688506371487  0.9973095185517802
  0.4801996232564128  0.8802777173281287  0.6081820673299365
  0.5228230053029639  0.6216339691334571  0.3914712053644260
  0.3751768873252535  0.8390882850170476  0.8471650046344394
  0.6237786305568862  0.0666220293003356  0.7772997203044810
  0.6235252942360771  0.6611562572167449  0.1489168986112935
  0.8756209687923900  0.9308034158387800  0.2219389461292898
  0.7233572342955304  0.2274235276847611  0.0039436632900299
  0.2768952555639462  0.2757028874983135  0.9953402173614622
  0.2262496299151321  0.1282953117523908  0.6071734246461539
  0.2728910501380795  0.8701022785394064  0.3934912958001698
  0.1267363199305490  0.0879930927270272  0.8447893417904684
  0.3727459098713246  0.3145454212787375  0.7661363634603723
  0.3732521872959939  0.9134211588258524  0.1547785606696882
  0.6261858492804038  0.1840638188301452  0.2277318396178921
  0.9970833740256432  0.4526521228408557  0.8072822584370527
  0.2517888511399896  0.7018921698487083  0.8100594131207094
  0.0003521810661249  0.0486529917707998  0.1936119375984784
  0.2505849057335198  0.2982382491974889  0.1917351443959740
  0.7542434803381093  0.7043864123687665  0.8010023988280278
  0.0002352661802184  0.9523332889532443  0.8085013922593197
  0.7504865834248110  0.2990410707834574  0.1951065291036511
  0.0001314107977116  0.5483123620985640  0.1930589676413447
  0.5007991578859998  0.9490217069165672  0.8074178871175535
  0.7492614009974814  0.2041664958260018  0.8101045034197033
  0.5015884800445324  0.5494831351458062  0.1922684687279225
  0.7486753447179729  0.7960745218880634  0.1909739789293866
  0.2500702799488079  0.2014879130391930  0.8051760759348027
  0.4946616126187707  0.4455153719130028  0.8036691131292563
  0.2503770355881293  0.7994276975455296  0.1947807830783566
  0.4998863636530693  0.0489218153592562  0.1935155394535163
  0.0008430092024800  0.2498676044845991  0.9999026527308922
  0.2487664095298922  0.5004630674207198  0.0015973561523559
  0.0050906572417473  0.3462385563984874  0.3659724226652279
  0.2462305573371195  0.5871092169956543  0.3659095778927036
  0.9950081866306778  0.1538722748650613  0.6339077399053199
  0.2509254116087684  0.4154990955090395  0.6326570437758883
  0.7525489329704639  0.4987497364411262  0.0031799035192818
  0.0008673668626442  0.7511052170867875  0.0023923397937489
  0.7552061530813746  0.5972970589887862  0.3705436500278941
  0.9944190285620583  0.8369771474021612  0.3668378329724662
  0.7468542630686893  0.4005391520097950  0.6300622864838298
  0.0090422839987892  0.6634668845198085  0.6328538474318766
  0.4981126879530739  0.7534393775025200  0.0029541172010493
  0.7505058578992548  0.0013295715867263  0.0023289706896928
  0.5047512123180038  0.8468112918552332  0.3676384389540041
  0.7454149186348450  0.0853817719154082  0.3660658234522274
  0.4931906728903047  0.6544977485006093  0.6299360835050384
  0.7553719553195440  0.9170141653944378  0.6327816546413471
  0.2499245091272799  0.0008961375979074  0.0001079303422657
  0.4999738928433275  0.2494704436201424  0.0023265006458956
  0.2544544285481428  0.0967281979335421  0.3670557080796555
  0.4948664852796369  0.3383463554673455  0.3687960919619784
  0.2451514286953374  0.9037537253399507  0.6338830409653493
  0.5072872437823152  0.1593045823069170  0.6329915714637172

  0.00000000E+00  0.00000000E+00  0.00000000E+00
  0.00000000E+00  0.00000000E+00  0.00000000E+00
  0.00000000E+00  0.00000000E+00  0.00000000E+00
  0.00000000E+00  0.00000000E+00  0.00000000E+00
  0.00000000E+00  0.00000000E+00  0.00000000E+00
  0.00000000E+00  0.00000000E+00  0.00000000E+00
  0.00000000E+00  0.00000000E+00  0.00000000E+00
  0.00000000E+00  0.00000000E+00  0.00000000E+00
  0.00000000E+00  0.00000000E+00  0.00000000E+00
  0.00000000E+00  0.00000000E+00  0.00000000E+00
  0.00000000E+00  0.00000000E+00  0.00000000E+00
  0.00000000E+00  0.00000000E+00  0.00000000E+00
  0.00000000E+00  0.00000000E+00  0.00000000E+00
  0.00000000E+00  0.00000000E+00  0.00000000E+00
  0.00000000E+00  0.00000000E+00  0.00000000E+00
  0.00000000E+00  0.00000000E+00  0.00000000E+00
  0.00000000E+00  0.00000000E+00  0.00000000E+00
  0.00000000E+00  0.00000000E+00  0.00000000E+00
  0.00000000E+00  0.00000000E+00  0.00000000E+00
  0.00000000E+00  0.00000000E+00  0.00000000E+00
  0.00000000E+00  0.00000000E+00  0.00000000E+00
  0.00000000E+00  0.00000000E+00  0.00000000E+00
  0.00000000E+00  0.00000000E+00  0.00000000E+00
  0.00000000E+00  0.00000000E+00  0.00000000E+00
  0.00000000E+00  0.00000000E+00  0.00000000E+00
  0.00000000E+00  0.00000000E+00  0.00000000E+00
  0.00000000E+00  0.00000000E+00  0.00000000E+00
  0.00000000E+00  0.00000000E+00  0.00000000E+00
  0.00000000E+00  0.00000000E+00  0.00000000E+00
  0.00000000E+00  0.00000000E+00  0.00000000E+00
  0.00000000E+00  0.00000000E+00  0.00000000E+00
  0.00000000E+00  0.00000000E+00  0.00000000E+00
  0.00000000E+00  0.00000000E+00  0.00000000E+00
  0.00000000E+00  0.00000000E+00  0.00000000E+00
  0.00000000E+00  0.00000000E+00  0.00000000E+00
  0.00000000E+00  0.00000000E+00  0.00000000E+00
  0.00000000E+00  0.00000000E+00  0.00000000E+00
  0.00000000E+00  0.00000000E+00  0.00000000E+00
  0.00000000E+00  0.00000000E+00  0.00000000E+00
  0.00000000E+00  0.00000000E+00  0.00000000E+00
  0.00000000E+00  0.00000000E+00  0.00000000E+00
  0.00000000E+00  0.00000000E+00  0.00000000E+00
  0.00000000E+00  0.00000000E+00  0.00000000E+00
  0.00000000E+00  0.00000000E+00  0.00000000E+00
  0.00000000E+00  0.00000000E+00  0.00000000E+00
  0.00000000E+00  0.00000000E+00  0.00000000E+00
  0.00000000E+00  0.00000000E+00  0.00000000E+00
  0.00000000E+00  0.00000000E+00  0.00000000E+00
  0.00000000E+00  0.00000000E+00  0.00000000E+00
  0.00000000E+00  0.00000000E+00  0.00000000E+00
  0.00000000E+00  0.00000000E+00  0.00000000E+00
  0.00000000E+00  0.00000000E+00  0.00000000E+00
  0.00000000E+00  0.00000000E+00  0.00000000E+00
  0.00000000E+00  0.00000000E+00  0.00000000E+00
  0.00000000E+00  0.00000000E+00  0.00000000E+00
  0.00000000E+00  0.00000000E+00  0.00000000E+00
  0.00000000E+00  0.00000000E+00  0.00000000E+00
  0.00000000E+00  0.00000000E+00  0.00000000E+00
  0.00000000E+00  0.00000000E+00  0.00000000E+00
  0.00000000E+00  0.00000000E+00  0.00000000E+00
  0.00000000E+00  0.00000000E+00  0.00000000E+00
  0.00000000E+00  0.00000000E+00  0.00000000E+00
  0.00000000E+00  0.00000000E+00  0.00000000E+00
  0.00000000E+00  0.00000000E+00  0.00000000E+00
  0.00000000E+00  0.00000000E+00  0.00000000E+00
  0.00000000E+00  0.00000000E+00  0.00000000E+00
  0.00000000E+00  0.00000000E+00  0.00000000E+00
  0.00000000E+00  0.00000000E+00  0.00000000E+00
  0.00000000E+00  0.00000000E+00  0.00000000E+00
  0.00000000E+00  0.00000000E+00  0.00000000E+00
  0.00000000E+00  0.00000000E+00  0.00000000E+00
  0.00000000E+00  0.00000000E+00  0.00000000E+00
  0.00000000E+00  0.00000000E+00  0.00000000E+00
  0.00000000E+00  0.00000000E+00  0.00000000E+00
  0.00000000E+00  0.00000000E+00  0.00000000E+00
  0.00000000E+00  0.00000000E+00  0.00000000E+00
  0.00000000E+00  0.00000000E+00  0.00000000E+00
  0.00000000E+00  0.00000000E+00  0.00000000E+00
  0.00000000E+00  0.00000000E+00  0.00000000E+00
  0.00000000E+00  0.00000000E+00  0.00000000E+00
  0.00000000E+00  0.00000000E+00  0.00000000E+00
  0.00000000E+00  0.00000000E+00  0.00000000E+00
  0.00000000E+00  0.00000000E+00  0.00000000E+00
  0.00000000E+00  0.00000000E+00  0.00000000E+00
  0.00000000E+00  0.00000000E+00  0.00000000E+00
  0.00000000E+00  0.00000000E+00  0.00000000E+00
  0.00000000E+00  0.00000000E+00  0.00000000E+00
  0.00000000E+00  0.00000000E+00  0.00000000E+00
  0.00000000E+00  0.00000000E+00  0.00000000E+00
  0.00000000E+00  0.00000000E+00  0.00000000E+00
  0.00000000E+00  0.00000000E+00  0.00000000E+00
  0.00000000E+00  0.00000000E+00  0.00000000E+00
  0.00000000E+00  0.00000000E+00  0.00000000E+00
  0.00000000E+00  0.00000000E+00  0.00000000E+00
  0.00000000E+00  0.00000000E+00  0.00000000E+00
