# Compound: Fe24Li31O16S24. Old comment: Fe24Li31O16S24
  1.0000000000
  7.8866538400  -7.9475567000   0.0601846200
  7.3433505600   7.9467915400  -2.8792872600
 -0.0478291200  -0.1071026000  10.5527142700
Fe    Li    O     S
   24    31    16    24
Direct
  0.2627298700   0.6623507600   0.6020639200
  0.2353294100   0.3349252000   0.3990813600
  0.1240138700   0.3263909700   0.8024449800
  0.3853349900   0.5836703900   0.8150834700
  0.8747281900   0.1738622300   0.1969744500
  0.1252893300   0.4215081000   0.1853453500
  0.0151521300   0.9157292500   0.6015216500
  0.9849264500   0.5850064500   0.3993828500
  0.8653746500   0.5725933800   0.8028556700
  0.1268184000   0.8294191000   0.8152421200
  0.6269565000   0.4262405300   0.1977034000
  0.8730769800   0.6693556200   0.1859067600
  0.7616528700   0.1627996600   0.6021383500
  0.7348585700   0.8343066200   0.3985946500
  0.6219357100   0.8161612000   0.8027920600
  0.8755105400   0.0805656600   0.8152317700
  0.3767080300   0.6759960400   0.1968675800
  0.6233789700   0.9200117000   0.1860995100
  0.5201680300   0.4214355400   0.6041856100
  0.4841204800   0.0844429000   0.3998943600
  0.3757056700   0.0746570100   0.8024162700
  0.6298406700   0.3390000900   0.8151305800
  0.1248107300   0.9241167600   0.1969655900
  0.3751427200   0.1716043300   0.1853602500
  0.4811529600   0.4804821500  -0.0014161800
  0.0227906200   0.5258453000   0.9971776800
  0.9780754500   0.3824240700   0.6074607100
  0.0214228300   0.1203474300   0.3929178900
  0.8776694100   0.3364778200   0.8472500400
  0.1224633800   0.5680068100   0.7770757000
  0.1239151700   0.1628212700   0.1552950800
  0.3778580900   0.4330233300   0.2236803900
  0.2266627900   0.7241568000   0.0033919400
  0.7646819900   0.7626307600   0.9917852000
  0.7197442700   0.6229696400   0.6123068000
  0.7731673100   0.3709555600   0.3923101100
  0.8741662100   0.8166594100   0.7697603800
  0.8749893600   0.4113708000   0.1548037900
  0.1267705200   0.6829384400   0.2255661300
  0.9735798100   0.9743206800   0.0026375000
  0.5266376200   0.0223600600   0.9973682200
  0.4803844900   0.8797750000   0.6079064300
  0.5229308500   0.6213064800   0.3911799000
  0.3747820500   0.8394945300   0.8473029300
  0.6238240800   0.0664994000   0.7769205800
  0.6235232000   0.6609178000   0.1483733000
  0.8757342000   0.9309596200   0.2218762200
  0.7230130600   0.2275344300   0.0037421500
  0.2769751700   0.2757115400   0.9954580800
  0.2269633900   0.1288974800   0.6071528800
  0.2728511000   0.8701029700   0.3934114500
  0.1266368100   0.0878571300   0.8447998500
  0.3730023700   0.3149024900   0.7667024200
  0.3730272800   0.9136146200   0.1549447900
  0.6260540400   0.1839305800   0.2271187900
  0.9968620100   0.4524227400   0.8072895100
  0.2517624300   0.7018723900   0.8099385300
  0.0004612300   0.0487440700   0.1936164400
  0.2502938800   0.2979657000   0.1917794600
  0.7541351200   0.7044157400   0.8013776500
  0.0000915200   0.9522494800   0.8086057800
  0.7505413200   0.2992443500   0.1951347600
  0.0000278200   0.5481720100   0.1930496700
  0.5005739000   0.9488547300   0.8073428600
  0.7492532200   0.2041588500   0.8100875800
  0.5017840300   0.5496163900   0.1925076200
  0.7487105100   0.7961725000   0.1909360500
  0.2502239500   0.2015861100   0.8053035300
  0.4943467200   0.4453743200   0.8041213200
  0.2504402100   0.7995122000   0.1948095100
  0.4997301500   0.0486766200   0.1934886300
  0.0007795100   0.2497257500  -0.0000583900
  0.2484854700   0.5002144100   0.0017800700
  0.0048422100   0.3463086600   0.3658140400
  0.2465625700   0.5871464600   0.3659396500
  0.9949138500   0.1542068400   0.6337113100
  0.2508679000   0.4150106300   0.6327266500
  0.7523982100   0.4987245800   0.0030622500
  0.0011066200   0.7515014800   0.0028129100
  0.7552616100   0.5975826800   0.3704591300
  0.9944332300   0.8370114400   0.3667769600
  0.7467689300   0.4006054100   0.6297882500
  0.0093069700   0.6639563000   0.6326507600
  0.4980897500   0.7532112800   0.0027233500
  0.7508121800   0.0016722500   0.0026783100
  0.5048889800   0.8464688900   0.3674569100
  0.7452940000   0.0855227600   0.3661883100
  0.4933878400   0.6543645600   0.6297300900
  0.7558479500   0.9171610400   0.6324796600
  0.2498096900   0.0008145700   0.0000578900
  0.4997250800   0.2492380100   0.0025371100
  0.2545154500   0.0965490900   0.3669211100
  0.4949301900   0.3383676500   0.3689923000
  0.2455162100   0.9035638600   0.6337053500
  0.5067659600   0.1594164000   0.6331933800
