# Compound: Fe24Li31O16S24. Old comment:
   1.0000000000000000     
     7.8866538400000001   -7.9475566999999998    0.0601846200000000
     7.3433505600000002    7.9467915400000004   -2.8792872599999999
    -0.0478291200000000   -0.1071026000000000   10.5527142699999992
   Fe   Li   O    S 
    24    31    16    24
Direct
  0.2698301200000017  0.6651371399999988  0.6014621400000024
  0.2334500400000010  0.3331359000000020  0.3982488700000033
  0.1250207599999982  0.3258103800000001  0.8025216400000019
  0.3772532400000017  0.5811472899999970  0.8167234800000003
  0.8749681099999975  0.1761102500000007  0.1966083399999974
  0.1251769899999999  0.4207176299999986  0.1831007099999979
  0.0147256400000018  0.9149332499999971  0.6012725799999998
  0.9881267499999993  0.5856078899999986  0.3977732000000032
  0.8725219199999970  0.5738258399999978  0.8000215799999992
  0.1254851099999996  0.8285237400000014  0.8147186400000024
  0.6229168200000004  0.4325532000000010  0.2113318999999976
  0.8753174400000034  0.6709356100000008  0.1861030800000023
  0.7645778500000020  0.1645750200000009  0.6004698400000024
  0.7287085000000033  0.8280349699999974  0.3989186299999972
  0.6229289099999988  0.8237723399999979  0.8033742900000007
  0.8757390099999967  0.0800274400000021  0.8157458499999990
  0.3804897300000007  0.6762025399999985  0.2112920699999989
  0.6243757200000033  0.9216373100000013  0.1869475800000018
  0.5151195299999998  0.4206316599999980  0.6006348599999995
  0.4854560699999979  0.0870970100000008  0.3974118300000029
  0.3758496100000031  0.0746807900000022  0.8004654799999997
  0.6257205699999986  0.3296457100000012  0.8128292700000017
  0.1269813700000029  0.9242704400000008  0.1968978100000029
  0.3746552799999989  0.1709456500000002  0.1833701600000026
  0.4707781199999985  0.4699743299999994  0.0022079900000023
  0.0231225100000003  0.5248925799999995  0.9947220299999984
  0.9780658099999968  0.3794658400000017  0.6063847699999982
  0.0220453900000024  0.1200319100000016  0.3922437000000016
  0.8763935899999993  0.3373915399999987  0.8447024499999998
  0.1238195600000012  0.5665704399999996  0.7730302499999979
  0.1237809599999977  0.1628265200000030  0.1562208900000002
  0.3798997700000015  0.4410460200000017  0.2429131399999989
  0.2281857999999986  0.7243737900000013  0.0054498000000009
  0.7731483000000026  0.7721900700000006  0.9972714399999987
  0.7747777499999984  0.3707408799999996  0.3930868699999976
  0.6250446299999979  0.5882188400000032  0.8463132899999977
  0.8724183799999992  0.8163091199999997  0.7721834199999975
  0.8717673499999989  0.4156849900000026  0.1562619199999986
  0.1283466000000004  0.6832770199999985  0.2257068600000025
  0.9749920000000003  0.9755564700000008  0.0043133799999993
  0.5252146999999994  0.0222851799999972  0.9955331700000016
  0.4795916500000033  0.8712150500000035  0.6033569200000031
  0.7202801800000032  0.6303245599999983  0.6029307700000004
  0.3761882299999968  0.8370894600000014  0.8450312699999998
  0.6230363399999987  0.0663042700000034  0.7732262899999967
  0.6219692100000032  0.6611108500000000  0.1592678800000016
  0.8766610200000002  0.9337361999999985  0.2299602900000011
  0.7222301999999985  0.2303367399999985  0.0045201399999968
  0.2774310300000025  0.2754225999999989  0.9957616100000024
  0.2272850399999982  0.1292221499999968  0.6067504900000031
  0.2722576900000035  0.8728568200000026  0.3938194799999977
  0.1266429900000006  0.0869740500000020  0.8453344200000004
  0.3735055799999998  0.3159918099999999  0.7703150800000031
  0.3762082200000023  0.9110666099999989  0.1567302300000009
  0.6267901599999988  0.1844707400000019  0.2254331199999982
  0.9988885699999983  0.4506671600000018  0.8037818099999967
  0.2499812399999968  0.7019951500000019  0.8093333899999990
  0.0000080000000011  0.0487831000000014  0.1942132200000017
  0.2515081199999969  0.2995548900000031  0.1916147900000027
  0.7488729900000024  0.7012775800000028  0.8049511199999984
  0.9996897899999979  0.9517910699999987  0.8084176799999980
  0.7486872500000032  0.3017300899999995  0.1946146800000008
  0.0017647299999979  0.5478977900000004  0.1885806299999970
  0.4996109699999991  0.9493635600000019  0.8041888400000019
  0.7499755500000020  0.2024057400000032  0.8078773299999966
  0.4980487500000024  0.5436200199999988  0.1839231900000016
  0.7499481799999970  0.7980132200000014  0.1934144100000026
  0.2495414300000007  0.2001408599999976  0.8045970200000028
  0.4995080099999996  0.4517086600000013  0.8086426200000005
  0.2530812899999972  0.7975184700000000  0.1954043200000015
  0.5006452000000010  0.0488447299999990  0.1889753600000006
  0.9990342999999982  0.2492828299999985  0.0002575999999976
  0.2463452300000029  0.4964527099999998  0.9937260299999977
  0.0054507700000030  0.3462569900000005  0.3659851900000035
  0.2394926699999971  0.5870954199999971  0.3683305699999977
  0.9948197200000024  0.1530404599999997  0.6329182899999992
  0.2551516199999995  0.4134852700000025  0.6320049300000008
  0.7531204100000011  0.5020906999999966  0.9967185499999971
  0.0008455299999994  0.7510466100000031  0.0008776800000021
  0.7613922500000001  0.5958331799999996  0.3654008299999987
  0.9979286100000024  0.8366455600000009  0.3666495499999982
  0.7443289500000034  0.4037115599999979  0.6317727500000032
  0.0047929500000023  0.6637603900000002  0.6339398599999981
  0.5024747499999975  0.7526860799999966  0.0000728899999984
  0.7504273999999995  0.0009567000000033  0.9994845699999999
  0.5047275299999967  0.8526906700000012  0.3664033000000018
  0.7455374999999975  0.0894067199999995  0.3657406700000010
  0.4935772299999996  0.6528239800000009  0.6374561299999968
  0.7549224099999989  0.9131494399999980  0.6320073500000021
  0.2490236699999997  0.9990978900000016  0.0011332300000007
  0.4984307000000001  0.2444928600000011  0.9937784500000006
  0.2544824499999976  0.0970890600000018  0.3665192400000024
  0.4948130599999985  0.3316290100000003  0.3677430500000014
  0.2454190400000016  0.9030776900000035  0.6338270500000007
  0.5057721299999969  0.1631081399999985  0.6326692900000026

  0.00000000E+00  0.00000000E+00  0.00000000E+00
  0.00000000E+00  0.00000000E+00  0.00000000E+00
  0.00000000E+00  0.00000000E+00  0.00000000E+00
  0.00000000E+00  0.00000000E+00  0.00000000E+00
  0.00000000E+00  0.00000000E+00  0.00000000E+00
  0.00000000E+00  0.00000000E+00  0.00000000E+00
  0.00000000E+00  0.00000000E+00  0.00000000E+00
  0.00000000E+00  0.00000000E+00  0.00000000E+00
  0.00000000E+00  0.00000000E+00  0.00000000E+00
  0.00000000E+00  0.00000000E+00  0.00000000E+00
  0.00000000E+00  0.00000000E+00  0.00000000E+00
  0.00000000E+00  0.00000000E+00  0.00000000E+00
  0.00000000E+00  0.00000000E+00  0.00000000E+00
  0.00000000E+00  0.00000000E+00  0.00000000E+00
  0.00000000E+00  0.00000000E+00  0.00000000E+00
  0.00000000E+00  0.00000000E+00  0.00000000E+00
  0.00000000E+00  0.00000000E+00  0.00000000E+00
  0.00000000E+00  0.00000000E+00  0.00000000E+00
  0.00000000E+00  0.00000000E+00  0.00000000E+00
  0.00000000E+00  0.00000000E+00  0.00000000E+00
  0.00000000E+00  0.00000000E+00  0.00000000E+00
  0.00000000E+00  0.00000000E+00  0.00000000E+00
  0.00000000E+00  0.00000000E+00  0.00000000E+00
  0.00000000E+00  0.00000000E+00  0.00000000E+00
  0.00000000E+00  0.00000000E+00  0.00000000E+00
  0.00000000E+00  0.00000000E+00  0.00000000E+00
  0.00000000E+00  0.00000000E+00  0.00000000E+00
  0.00000000E+00  0.00000000E+00  0.00000000E+00
  0.00000000E+00  0.00000000E+00  0.00000000E+00
  0.00000000E+00  0.00000000E+00  0.00000000E+00
  0.00000000E+00  0.00000000E+00  0.00000000E+00
  0.00000000E+00  0.00000000E+00  0.00000000E+00
  0.00000000E+00  0.00000000E+00  0.00000000E+00
  0.00000000E+00  0.00000000E+00  0.00000000E+00
  0.00000000E+00  0.00000000E+00  0.00000000E+00
  0.00000000E+00  0.00000000E+00  0.00000000E+00
  0.00000000E+00  0.00000000E+00  0.00000000E+00
  0.00000000E+00  0.00000000E+00  0.00000000E+00
  0.00000000E+00  0.00000000E+00  0.00000000E+00
  0.00000000E+00  0.00000000E+00  0.00000000E+00
  0.00000000E+00  0.00000000E+00  0.00000000E+00
  0.00000000E+00  0.00000000E+00  0.00000000E+00
  0.00000000E+00  0.00000000E+00  0.00000000E+00
  0.00000000E+00  0.00000000E+00  0.00000000E+00
  0.00000000E+00  0.00000000E+00  0.00000000E+00
  0.00000000E+00  0.00000000E+00  0.00000000E+00
  0.00000000E+00  0.00000000E+00  0.00000000E+00
  0.00000000E+00  0.00000000E+00  0.00000000E+00
  0.00000000E+00  0.00000000E+00  0.00000000E+00
  0.00000000E+00  0.00000000E+00  0.00000000E+00
  0.00000000E+00  0.00000000E+00  0.00000000E+00
  0.00000000E+00  0.00000000E+00  0.00000000E+00
  0.00000000E+00  0.00000000E+00  0.00000000E+00
  0.00000000E+00  0.00000000E+00  0.00000000E+00
  0.00000000E+00  0.00000000E+00  0.00000000E+00
  0.00000000E+00  0.00000000E+00  0.00000000E+00
  0.00000000E+00  0.00000000E+00  0.00000000E+00
  0.00000000E+00  0.00000000E+00  0.00000000E+00
  0.00000000E+00  0.00000000E+00  0.00000000E+00
  0.00000000E+00  0.00000000E+00  0.00000000E+00
  0.00000000E+00  0.00000000E+00  0.00000000E+00
  0.00000000E+00  0.00000000E+00  0.00000000E+00
  0.00000000E+00  0.00000000E+00  0.00000000E+00
  0.00000000E+00  0.00000000E+00  0.00000000E+00
  0.00000000E+00  0.00000000E+00  0.00000000E+00
  0.00000000E+00  0.00000000E+00  0.00000000E+00
  0.00000000E+00  0.00000000E+00  0.00000000E+00
  0.00000000E+00  0.00000000E+00  0.00000000E+00
  0.00000000E+00  0.00000000E+00  0.00000000E+00
  0.00000000E+00  0.00000000E+00  0.00000000E+00
  0.00000000E+00  0.00000000E+00  0.00000000E+00
  0.00000000E+00  0.00000000E+00  0.00000000E+00
  0.00000000E+00  0.00000000E+00  0.00000000E+00
  0.00000000E+00  0.00000000E+00  0.00000000E+00
  0.00000000E+00  0.00000000E+00  0.00000000E+00
  0.00000000E+00  0.00000000E+00  0.00000000E+00
  0.00000000E+00  0.00000000E+00  0.00000000E+00
  0.00000000E+00  0.00000000E+00  0.00000000E+00
  0.00000000E+00  0.00000000E+00  0.00000000E+00
  0.00000000E+00  0.00000000E+00  0.00000000E+00
  0.00000000E+00  0.00000000E+00  0.00000000E+00
  0.00000000E+00  0.00000000E+00  0.00000000E+00
  0.00000000E+00  0.00000000E+00  0.00000000E+00
  0.00000000E+00  0.00000000E+00  0.00000000E+00
  0.00000000E+00  0.00000000E+00  0.00000000E+00
  0.00000000E+00  0.00000000E+00  0.00000000E+00
  0.00000000E+00  0.00000000E+00  0.00000000E+00
  0.00000000E+00  0.00000000E+00  0.00000000E+00
  0.00000000E+00  0.00000000E+00  0.00000000E+00
  0.00000000E+00  0.00000000E+00  0.00000000E+00
  0.00000000E+00  0.00000000E+00  0.00000000E+00
  0.00000000E+00  0.00000000E+00  0.00000000E+00
  0.00000000E+00  0.00000000E+00  0.00000000E+00
  0.00000000E+00  0.00000000E+00  0.00000000E+00
  0.00000000E+00  0.00000000E+00  0.00000000E+00
