# Compound: Fe24Li31O16S24. Old comment: Fe24Li31O16S24
  1.0000000000
  7.8866538400  -7.9475567000   0.0601846200
  7.3433505600   7.9467915400  -2.8792872600
 -0.0478291200  -0.1071026000  10.5527142700
Fe    Li    O     S
   24    31    16    24
Direct
  0.2698301200   0.6651371400   0.6014621400
  0.2334500400   0.3331359000   0.3982488700
  0.1250207600   0.3258103800   0.8025216400
  0.3772532400   0.5811472900   0.8167234800
  0.8749681100   0.1761102500   0.1966083400
  0.1251769900   0.4207176300   0.1831007100
  0.0147256400   0.9149332500   0.6012725800
  0.9881267500   0.5856078900   0.3977732000
  0.8725219200   0.5738258400   0.8000215800
  0.1254851100   0.8285237400   0.8147186400
  0.6229168200   0.4325532000   0.2113319000
  0.8753174400   0.6709356100   0.1861030800
  0.7645778500   0.1645750200   0.6004698400
  0.7287085000   0.8280349700   0.3989186300
  0.6229289100   0.8237723400   0.8033742900
  0.8757390100   0.0800274400   0.8157458500
  0.3804897300   0.6762025400   0.2112920700
  0.6243757200   0.9216373100   0.1869475800
  0.5151195300   0.4206316600   0.6006348600
  0.4854560700   0.0870970100   0.3974118300
  0.3758496100   0.0746807900   0.8004654800
  0.6257205700   0.3296457100   0.8128292700
  0.1269813700   0.9242704400   0.1968978100
  0.3746552800   0.1709456500   0.1833701600
  0.4707781200   0.4699743300   0.0022079900
  0.0231225100   0.5248925800   0.9947220300
  0.9780658100   0.3794658400   0.6063847700
  0.0220453900   0.1200319100   0.3922437000
  0.8763935900   0.3373915400   0.8447024500
  0.1238195600   0.5665704400   0.7730302500
  0.1237809600   0.1628265200   0.1562208900
  0.3798997700   0.4410460200   0.2429131400
  0.2281858000   0.7243737900   0.0054498000
  0.7731483000   0.7721900700   0.9972714400
  0.7747777500   0.3707408800   0.3930868700
  0.6250446300   0.5882188400   0.8463132900
  0.8724183800   0.8163091200   0.7721834200
  0.8717673500   0.4156849900   0.1562619200
  0.1283466000   0.6832770200   0.2257068600
  0.9749920000   0.9755564700   0.0043133800
  0.5252147000   0.0222851800   0.9955331700
  0.4795916500   0.8712150500   0.6033569200
  0.7202801800   0.6303245600   0.6029307700
  0.3761882300   0.8370894600   0.8450312700
  0.6230363400   0.0663042700   0.7732262900
  0.6219692100   0.6611108500   0.1592678800
  0.8766610200   0.9337362000   0.2299602900
  0.7222302000   0.2303367400   0.0045201400
  0.2774310300   0.2754226000   0.9957616100
  0.2272850400   0.1292221500   0.6067504900
  0.2722576900   0.8728568200   0.3938194800
  0.1266429900   0.0869740500   0.8453344200
  0.3735055800   0.3159918100   0.7703150800
  0.3762082200   0.9110666100   0.1567302300
  0.6267901600   0.1844707400   0.2254331200
  0.9988885700   0.4506671600   0.8037818100
  0.2499812400   0.7019951500   0.8093333900
  0.0000080000   0.0487831000   0.1942132200
  0.2515081200   0.2995548900   0.1916147900
  0.7488729900   0.7012775800   0.8049511200
 -0.0003102100   0.9517910700   0.8084176800
  0.7486872500   0.3017300900   0.1946146800
  0.0017647300   0.5478977900   0.1885806300
  0.4996109700   0.9493635600   0.8041888400
  0.7499755500   0.2024057400   0.8078773300
  0.4980487500   0.5436200200   0.1839231900
  0.7499481800   0.7980132200   0.1934144100
  0.2495414300   0.2001408600   0.8045970200
  0.4995080100   0.4517086600   0.8086426200
  0.2530812900   0.7975184700   0.1954043200
  0.5006452000   0.0488447300   0.1889753600
 -0.0009657000   0.2492828300   0.0002576000
  0.2463452300   0.4964527100  -0.0062739700
  0.0054507700   0.3462569900   0.3659851900
  0.2394926700   0.5870954200   0.3683305700
  0.9948197200   0.1530404600   0.6329182900
  0.2551516200   0.4134852700   0.6320049300
  0.7531204100   0.5020907000  -0.0032814500
  0.0008455300   0.7510466100   0.0008776800
  0.7613922500   0.5958331800   0.3654008300
  0.9979286100   0.8366455600   0.3666495500
  0.7443289500   0.4037115600   0.6317727500
  0.0047929500   0.6637603900   0.6339398600
  0.5024747500   0.7526860800   0.0000728900
  0.7504274000   0.0009567000  -0.0005154300
  0.5047275300   0.8526906700   0.3664033000
  0.7455375000   0.0894067200   0.3657406700
  0.4935772300   0.6528239800   0.6374561300
  0.7549224100   0.9131494400   0.6320073500
  0.2490236700  -0.0009021100   0.0011332300
  0.4984307000   0.2444928600  -0.0062215500
  0.2544824500   0.0970890600   0.3665192400
  0.4948130600   0.3316290100   0.3677430500
  0.2454190400   0.9030776900   0.6338270500
  0.5057721300   0.1631081400   0.6326692900
