# Compound: Fe24Li31O16S24. Old comment:
   1.0000000000000000     
     7.8866538400000001   -7.9475566999999998    0.0601846200000000
     7.3433505600000002    7.9467915400000004   -2.8792872599999999
    -0.0478291200000000   -0.1071026000000000   10.5527142699999992
   Fe   Li   O    S 
    24    31    16    24
Direct
  0.2629112522467359  0.6612732916813355  0.6026633714710747
  0.2346083650004363  0.3342657308739539  0.3965219851141997
  0.1101491213773856  0.3236345518583235  0.8022467785059877
  0.3928909826352238  0.5854980297014675  0.8169998506318941
  0.8734276640840762  0.1722703275965721  0.1986637146457727
  0.1246572214247589  0.4214735995934249  0.1823888497636064
  0.0097973316560518  0.9132373744170165  0.6025820291294790
  0.9833007552993914  0.5794976177275204  0.3943988997848881
  0.9310295989621969  0.6314127056581338  0.8005486636841822
  0.1315403554988275  0.8352387530123023  0.8152611782268014
  0.6238371653986076  0.4244766814768813  0.2023562907033709
  0.8708805283061345  0.6685882770079390  0.1893399681992748
  0.7615118142445829  0.1583255710525278  0.6009764398049371
  0.7380732553702382  0.8390104393759023  0.3987518631569552
  0.6228699345987877  0.8111027570820528  0.8025623024989392
  0.8813448464325383  0.0976610540482335  0.8167581587698791
  0.3729645969253430  0.6732086132037243  0.1997478938724883
  0.6255221747347238  0.9191741961130980  0.1829674119591546
  0.5080952161412945  0.4123447556169417  0.6007412900588199
  0.4823466250124250  0.0811183515446148  0.3971745734202433
  0.3747342724126813  0.0754732095020124  0.8028651587508168
  0.6151514841785879  0.3174111596053819  0.8090018967340722
  0.1280487040451400  0.9278438304251246  0.1985393604699284
  0.3733584683736545  0.1693460029179779  0.1833104690520620
  0.4919544551732077  0.4848052813850679  0.0019880403472819
 -0.0023297949894370  0.5040009838164313  0.9899960549890170
  0.9582698997693104  0.3767148430241070  0.6151814203109627
  0.0182098570309930  0.1152657064943412  0.3919169986035104
  0.7801992713975495  0.4857826798026146  0.8150425254061621
  0.1508612135259274  0.5559101371115839  0.7902019238744717
  0.1218086081591499  0.1653102910214451  0.1541077523436377
  0.3752518814547489  0.4314951053149875  0.2232192104146364
  0.2269478822228541  0.7260177677448616  0.0044778275341321
  0.7474455186753192  0.7338059214937208  0.9895370347070220
  0.7229774677522528  0.6123469676934654  0.6160761459555602
  0.7775191428200015  0.3733548422922867  0.3885422361664365
  0.8574837649179776  0.8496750399711354  0.7956173151570934
  0.8723565304259419  0.4088597423089962  0.1590028430724375
  0.1232374021539231  0.6817481273914276  0.2177975424259780
  0.9771167922480583  0.9802515784895939  0.0036647371779844
  0.5302606085618436  0.0246268825012233  0.9955551951245545
  0.4777418606718822  0.8799328852896785  0.6094465358127455
  0.5195064451607004  0.6203165872435977  0.3958930643260073
  0.3778329220596601  0.8398934888885837  0.8489011588212505
  0.6256365429014976  0.0575901157120743  0.7738590209699285
  0.6194094058493793  0.6649970701460342  0.1708953568320028
  0.8766449529480971  0.9255019924979838  0.2096476839923293
  0.7290206945098336  0.2361852889387534  0.0018602415966336
  0.2749295486635853  0.2785466267004012  0.9943897392869540
  0.2271119103537886  0.1305424319660016  0.6090248885300411
  0.2695377516559667  0.8675136611157982  0.3939537380379696
  0.1279311146712154  0.0896408014094673  0.8475049326999202
  0.3640838525298211  0.3197070140729671  0.7743248336680982
  0.3764506546574740  0.9099541458472127  0.1543606964890490
  0.6258540547134390  0.1820921579459575  0.2290506389067124
 -0.0006781423120567  0.4688179830072770  0.7993074523687278
  0.2555521013692654  0.7034855646548038  0.8119814317594497
  0.0010472656769523  0.0507059972711828  0.1934336418949413
  0.2481696904083112  0.2975205941410732  0.1895408069216586
  0.7680597272580396  0.6980518898948423  0.8003098866464499
  1.0007008964389013  0.9584383061826017  0.8117199117096350
  0.7493510641395069  0.2961613898416973  0.1984193685225009
  0.9968962515676560  0.5457023529854933  0.1910874268345513
  0.5014887510243630  0.9474152367944856  0.8079383116879655
  0.7397448997317337  0.1973346352129019  0.8061580896165313
  0.4969974769729666  0.5491608572452065  0.1996524269567992
  0.7477298759142199  0.7938614512397349  0.1914010569862092
  0.2454174417021298  0.2032831822809440  0.8069063190407771
  0.4960180879396911  0.4416874691006849  0.8055940653618413
  0.2516199497807513  0.7992920981546062  0.1945188148423073
  0.4999651850129894  0.0461944070720621  0.1908767639515346
  0.0002954825472989  0.2544955348171337  0.0006511958796432
  0.2477443337967109  0.5017093516473194 -0.0007725629805287
  0.0047177358820237  0.3472678357870966  0.3697025651426759
  0.2441092739096443  0.5871300274517713  0.3642823396983644
  0.9942262606975054  0.1550147628992293  0.6306914328774818
  0.2608067788325778  0.4162040294918720  0.6281292196680655
  0.7387328914478701  0.4970546061533597  0.0252499886898870
  0.0022845020314041  0.7555285829420990  0.0129035597017349
  0.7552896668788879  0.5983919015173769  0.3762064579240764
  0.9953839696150515  0.8400065805116944  0.3638038910455930
  0.7302267706582674  0.3821647411740151  0.6096374996265886
  0.0258943584026753  0.6806377391195009  0.6191679447512081
  0.5046189247839283  0.7495201714409611  0.0012540191582337
  0.7523193831166095 -0.0015896015835972  0.0003205791971656
  0.5047501308902703  0.8451033972249820  0.3668028601782738
  0.7446107861256666  0.0777699099751381  0.3638122230193214
  0.4965140531486920  0.6525061277321039  0.6315014328821532
  0.7594082376354994  0.9179020989443164  0.6308341382137733
  0.2490709571782710 -0.0006918692091403  0.0016066555598635
  0.4969074345676827  0.2480617479566315  0.0017227995360693
  0.2543364193610809  0.0967528663075284  0.3665184596864743
  0.4895798279382427  0.3331375299036379  0.3643957463780872
  0.2475871968079674  0.9066167864120711  0.6354606727036178
  0.4970679351417839  0.1544300136155598  0.6319253343935718

             NaN             NaN             NaN
             NaN             NaN             NaN
             NaN             NaN             NaN
             NaN             NaN             NaN
             NaN             NaN             NaN
             NaN             NaN             NaN
             NaN             NaN             NaN
             NaN             NaN             NaN
             NaN             NaN             NaN
             NaN             NaN             NaN
             NaN             NaN             NaN
             NaN             NaN             NaN
             NaN             NaN             NaN
             NaN             NaN             NaN
             NaN             NaN             NaN
             NaN             NaN             NaN
             NaN             NaN             NaN
             NaN             NaN             NaN
             NaN             NaN             NaN
             NaN             NaN             NaN
             NaN             NaN             NaN
             NaN             NaN             NaN
             NaN             NaN             NaN
             NaN             NaN             NaN
             NaN             NaN             NaN
             NaN             NaN             NaN
             NaN             NaN             NaN
             NaN             NaN             NaN
             NaN             NaN             NaN
             NaN             NaN             NaN
             NaN             NaN             NaN
             NaN             NaN             NaN
             NaN             NaN             NaN
             NaN             NaN             NaN
             NaN             NaN             NaN
             NaN             NaN             NaN
             NaN             NaN             NaN
             NaN             NaN             NaN
             NaN             NaN             NaN
             NaN             NaN             NaN
             NaN             NaN             NaN
             NaN             NaN             NaN
             NaN             NaN             NaN
             NaN             NaN             NaN
             NaN             NaN             NaN
             NaN             NaN             NaN
             NaN             NaN             NaN
             NaN             NaN             NaN
             NaN             NaN             NaN
             NaN             NaN             NaN
             NaN             NaN             NaN
             NaN             NaN             NaN
             NaN             NaN             NaN
             NaN             NaN             NaN
             NaN             NaN             NaN
             NaN             NaN             NaN
             NaN             NaN             NaN
             NaN             NaN             NaN
             NaN             NaN             NaN
             NaN             NaN             NaN
             NaN             NaN             NaN
             NaN             NaN             NaN
             NaN             NaN             NaN
             NaN             NaN             NaN
             NaN             NaN             NaN
             NaN             NaN             NaN
             NaN             NaN             NaN
             NaN             NaN             NaN
             NaN             NaN             NaN
             NaN             NaN             NaN
             NaN             NaN             NaN
             NaN             NaN             NaN
             NaN             NaN             NaN
             NaN             NaN             NaN
             NaN             NaN             NaN
             NaN             NaN             NaN
             NaN             NaN             NaN
             NaN             NaN             NaN
             NaN             NaN             NaN
             NaN             NaN             NaN
             NaN             NaN             NaN
             NaN             NaN             NaN
             NaN             NaN             NaN
             NaN             NaN             NaN
             NaN             NaN             NaN
             NaN             NaN             NaN
             NaN             NaN             NaN
             NaN             NaN             NaN
             NaN             NaN             NaN
             NaN             NaN             NaN
             NaN             NaN             NaN
             NaN             NaN             NaN
             NaN             NaN             NaN
             NaN             NaN             NaN
             NaN             NaN             NaN
