# Compound: Fe24Li31O16S24. Old comment: Li4Fe3S3O2 Enum Minimum PATH2 INIT FRAME 03
  1.0000000000
  7.8866538400  -7.9475567000   0.0601846200
  7.3433505600   7.9467915400  -2.8792872600
 -0.0478291200  -0.1071026000  10.5527142700
Fe    Li    O     S
   24    31    16    24
Direct
  0.2637282000   0.6641247150   0.6018516300
  0.2352242750   0.3349520550   0.3991171150
  0.1197617850   0.3244706600   0.8026550250
  0.3810577150   0.5814531600   0.8151020350
  0.8758724250   0.1750656000   0.1973470150
  0.1241929200   0.4204038100   0.1855483450
  0.0136617350  -0.0854151950   0.6018225450
 -0.0151966450   0.5846344150   0.3988793600
  0.8685955000   0.5693122350   0.8027773450
  0.1262028700   0.8299949700   0.8151583550
  0.6268074850   0.4261158600   0.1973319050
  0.8731886650   0.6696860800   0.1859165100
  0.7658979850   0.1668650850   0.6033301750
  0.7346837000   0.8344459500   0.3991786150
  0.6236882900   0.8203434800   0.8025569050
  0.8777487300   0.0849083550   0.8152991250
  0.3757958550   0.6750785300   0.1968959500
  0.6242302750  -0.0792284000   0.1857397550
  0.5166581800   0.4170537100   0.6030225450
  0.4845942700   0.0846397600   0.3994829250
  0.3748503450   0.0755255100   0.8023827000
  0.6325902850   0.3363153050   0.8151824300
  0.1249305200  -0.0758297050   0.1970325850
  0.3750671750   0.1713637450   0.1852814900
  0.4788069750   0.4772944700   0.0008317850
  0.0189921400   0.5193151150  -0.0055473450
 -0.0253482500   0.3780850200   0.6099451500
  0.0219496100   0.1204890300   0.3926599050
  0.7510728750   0.4630117950   0.8469653650
  0.1233256400   0.5674168200   0.7738732350
  0.1243574150   0.1621443800   0.1549583500
  0.3774039450   0.4330823400   0.2246358900
  0.2251977650   0.7246478800   0.0032118900
  0.7705311250   0.7673585400  -0.0059115850
  0.7248449550   0.6261474050   0.6100646350
  0.7732192300   0.3710115100   0.3919007550
  0.8739423750   0.8164680750   0.7729438950
  0.8742876700   0.4112356000   0.1516726350
  0.1262466250   0.6821388450   0.2241630650
 -0.0265032450  -0.0240129200   0.0031853900
  0.5264046900   0.0238115150  -0.0035606450
  0.4787782800   0.8797575700   0.6076161400
  0.5227478550   0.6208476200   0.3924674900
  0.3758747150   0.8383972000   0.8458504300
  0.6233740500   0.0658341050   0.7724283700
  0.6232967200   0.6623583950   0.1519637650
  0.8758489200  -0.0677090700   0.2243365350
  0.7272033700   0.2289588550   0.0013328250
  0.2748469350   0.2756066450  -0.0038609100
  0.2271309500   0.1303080950   0.6072978750
  0.2721765900   0.8702004800   0.3932869100
  0.1271219700   0.0872498500   0.8458307650
  0.3725999750   0.3161853750   0.7713903800
  0.3735743600  -0.0868823000   0.1551143450
  0.6270089700   0.1835697550   0.2257816150
  0.0006765550   0.4536531550   0.8044998250
  0.2509790000   0.7020902200   0.8092951050
  0.0004243300   0.0488990550   0.1943623350
  0.2503047900   0.2982055700   0.1923735950
  0.7524447650   0.7015834800   0.8040695800
 -0.0002840750  -0.0467743750   0.8091484450
  0.7510531650   0.2992533050   0.1937999700
 -0.0005228900   0.5472928900   0.1919509400
  0.5004032500  -0.0497957450   0.8063983600
  0.7468286100   0.1998522000   0.8072894150
  0.5009780950   0.5494723650   0.1935526900
  0.7492393400   0.7973739250   0.1921893850
  0.2484645350   0.2019714000   0.8061279650
  0.4982075650   0.4486271550   0.8066764150
  0.2504124600   0.7991034400   0.1942676900
  0.5000812300   0.0484569750   0.1926950000
  0.0015880150   0.2492444450   0.0015183500
  0.2499773150   0.5009947600   0.0021826100
  0.0051647400   0.3469081750   0.3681665050
  0.2453341600   0.5870372600   0.3663339050
 -0.0041793200   0.1524132100   0.6319288050
  0.2550012700   0.4147430050   0.6326844200
  0.7502417500   0.5009615000   0.0030109900
  0.0008610700   0.7514291250   0.0025143650
  0.7550365200   0.5968830200   0.3689968550
 -0.0051586000   0.8362651350   0.3665282200
  0.7452513850   0.4023945200   0.6299889750
  0.0074530550   0.6652175050   0.6326788850
  0.4989704400   0.7520342300   0.0014792450
  0.7501079150   0.0002427850   0.0024269250
  0.5046331050   0.8466460350   0.3672286200
  0.7452021750   0.0868668050   0.3675446300
  0.4943335050   0.6540087400   0.6317981500
  0.7559942150  -0.0867544650   0.6330117000
  0.2502830700   0.0003162650   0.0000129700
  0.4991925750   0.2498263350   0.0020599100
  0.2546360450   0.0964911850   0.3664635150
  0.4956764950   0.3377527600   0.3673988800
  0.2450225400  -0.0960571800   0.6337722000
  0.5041001400   0.1620892150   0.6329123250
