# Compound: Li2OS2Fe2. Old comment: LFSO-Li2Fe2S2O-201022-042623-e6d3a9 RELAXED
  1.0000000000
  5.4551710500   0.0000000400  -0.0099841700
  2.7275816000   2.7285449400  -0.0049920800
  2.7244071700   0.0000004300   6.3870393900
Li    O     S     Fe
    2     1     2     2
Direct
  0.0556495000   0.3927569200   0.9996172600
  0.5515935800   0.3927569200   0.0003827400
  0.0527023900   0.8945962300   0.0000000000
  0.7031680500   0.8922997300   0.7002160500
  0.4045322200   0.8922997300   0.2997839500
  0.2039942900   0.9049287400   0.6803740800
  0.8910769700   0.9049287400   0.3196259200
