# Compound: Li2O2S2Fe3. Old comment: LFSO-Li2Fe3S2O2-201022-171823-c39cef MODE PUSH RELAXED RELAXED q_003
  1.0000000000
  3.7930198900   0.0001074800   0.0000663900
  0.0001506900   5.6343697400   0.0416753400
  0.0000808700  -0.1627933100   5.6325174000
Li    O     S     Fe
    2     2     2     3
Direct
  0.3177665100   0.5381954100   0.9530241400
  0.3177668300   0.9532276900   0.5380038300
  0.3180507300   0.2394913900   0.7503138800
  0.3180677000   0.7503516100   0.2393223000
  0.8186129900   0.2362139000   0.2362477200
  0.8180137800   0.7495272300   0.7493546900
  0.8181815500   0.6723465100   0.3058788400
  0.8181736900   0.3059895700   0.6722699800
  0.3187599200   0.0330632400   0.0329594400
