# Compound: Li8O2S6Fe4. Old comment: LFS
   1.0000000000000000     
     6.4240945393650311    0.0000000000000000    0.0000000000000000
     0.0000000000000000    6.0504490896341663    0.1917133460575443
     0.0000000000000000   -6.2886423306907870    7.4976267961825167
   Li   O    S    Fe
     8     2     6     4
Direct
  0.8064417789963404  0.1174377757569140  0.6596236359502536
  0.1935582210036595  0.6174377757569141  0.6596236359502536
  0.1943149795086398  0.1835358248964499  0.2253044626309217
  0.8056850204913601  0.6835358248964569  0.2253044626309217
  0.8569822244884731  0.5837660979781880  0.4421243871839594
  0.1430177755115269  0.0837660979781881  0.4421243871839594
  0.9535667946841649  0.6245442179173496  0.9433123936676325
  0.0464332053158350  0.1245442179173496  0.9433123936676325
  0.3274915499617377  0.3452278333421613  0.4424796449212129
  0.6725084500382623  0.8452278333421612  0.4424796449212129
  0.8103447836133308  0.5420572439885616  0.6754310555958455
  0.1896552163866691  0.0420572439885619  0.6754310555958455
  0.7068706550875892  0.3019880472015393  0.9424175199336561
  0.2931293449124108  0.8019880472015393  0.9424175199336561
  0.1896724792537525  0.5758403970793208  0.2089460327713057
  0.8103275207462473  0.0758403970793208  0.2089460327713057
  0.6367819675201878  0.9173164444573203  0.9418235274793579
  0.3632180324798122  0.4173164444573204  0.9418235274793579
  0.4192890286721341  0.6650631473821841  0.4423963498658628
  0.5807109713278659  0.1650631473821840  0.4423963498658628

  0.00000000E+00  0.00000000E+00  0.00000000E+00
  0.00000000E+00  0.00000000E+00  0.00000000E+00
  0.00000000E+00  0.00000000E+00  0.00000000E+00
  0.00000000E+00  0.00000000E+00  0.00000000E+00
  0.00000000E+00  0.00000000E+00  0.00000000E+00
  0.00000000E+00  0.00000000E+00  0.00000000E+00
  0.00000000E+00  0.00000000E+00  0.00000000E+00
  0.00000000E+00  0.00000000E+00  0.00000000E+00
  0.00000000E+00  0.00000000E+00  0.00000000E+00
  0.00000000E+00  0.00000000E+00  0.00000000E+00
  0.00000000E+00  0.00000000E+00  0.00000000E+00
  0.00000000E+00  0.00000000E+00  0.00000000E+00
  0.00000000E+00  0.00000000E+00  0.00000000E+00
  0.00000000E+00  0.00000000E+00  0.00000000E+00
  0.00000000E+00  0.00000000E+00  0.00000000E+00
  0.00000000E+00  0.00000000E+00  0.00000000E+00
  0.00000000E+00  0.00000000E+00  0.00000000E+00
  0.00000000E+00  0.00000000E+00  0.00000000E+00
  0.00000000E+00  0.00000000E+00  0.00000000E+00
  0.00000000E+00  0.00000000E+00  0.00000000E+00
