# Compound: Li8O2S6Fe4. Old comment: LFSO-Li4Fe2S3O-200911-023604-a5ffb0 RELAXED
  1.0000000000
  6.4780290400   0.0000000000   0.0000000000
  0.0000000000   6.1128468500   0.2013352000
  0.0000000000  -6.3435715700   7.5514771300
Li    O     S     Fe
    8     2     6     4
Direct
  0.8070115000   0.1186807600   0.6601311200
  0.1929885000   0.6186807600   0.6601311200
  0.1937284800   0.1835684600   0.2248206900
  0.8062715200   0.6835684600   0.2248206900
  0.8581217400   0.5835955600   0.4420664100
  0.1418782600   0.0835955600   0.4420664100
  0.9540091000   0.6245168400   0.9436003800
  0.0459909000   0.1245168400   0.9436003800
  0.3252087900   0.3444892900   0.4425344700
  0.6747912100   0.8444892900   0.4425344700
  0.8120492500   0.5411087700   0.6754400900
  0.1879507500   0.0411087700   0.6754400900
  0.7082481900   0.3026661900   0.9426647800
  0.2917518100   0.8026661900   0.9426647800
  0.1876975900   0.5747926900   0.2086218500
  0.8123024100   0.0747926900   0.2086218500
  0.6368482500   0.9171358500   0.9413858800
  0.3631517500   0.4171358500   0.9413858800
  0.4184702400   0.6662226200   0.4425933400
  0.5815297600   0.1662226200   0.4425933400
