# Compound: Li8Fe4S4O4. Old comment: FeL
   1.00000000000000     
     7.7124110100000003    0.0000000000000000    0.0000000000000000
     0.0000000000000000    5.6051212100000001    0.0000000000000000
     0.0000000000000000    0.0000000000000000    5.6385134900000002
   Li   Fe   S    O 
     8     4     4     4
Direct
  0.2500000000000000  0.5000000000000000  0.9350201900000030
  0.2500000000000000  0.0000000000000000  0.5649798099999970
  0.7500000000000000  0.5000000000000000  0.0649798099999970
  0.7500000000000000  0.0000000000000000  0.4350201900000030
  0.5384813599999987  0.7500000000000000  0.7500000000000000
  0.4615186400000013  0.2500000000000000  0.2500000000000000
  0.0384813599999987  0.7500000000000000  0.2500000000000000
  0.9615186400000013  0.2500000000000000  0.7500000000000000
  0.9721329500000024  0.7500000000000000  0.7500000000000000
  0.0278670499999976  0.2500000000000000  0.2500000000000000
  0.4721329500000024  0.7500000000000000  0.2500000000000000
  0.5278670499999976  0.2500000000000000  0.7500000000000000
  0.2500000000000000  0.0000000000000000  0.0021210600000003
  0.2500000000000000  0.5000000000000000  0.4978789399999997
  0.7500000000000000  0.0000000000000000  0.9978789399999997
  0.7500000000000000  0.5000000000000000  0.5021210600000003
  0.0000000000000000  0.5000000000000000  0.0000000000000000
  0.0000000000000000  0.0000000000000000  0.5000000000000000
  0.5000000000000000  0.5000000000000000  0.0000000000000000
  0.5000000000000000  0.0000000000000000  0.5000000000000000
 
  0.00000000E+00  0.00000000E+00  0.00000000E+00
  0.00000000E+00  0.00000000E+00  0.00000000E+00
  0.00000000E+00  0.00000000E+00  0.00000000E+00
  0.00000000E+00  0.00000000E+00  0.00000000E+00
  0.00000000E+00  0.00000000E+00  0.00000000E+00
  0.00000000E+00  0.00000000E+00  0.00000000E+00
  0.00000000E+00  0.00000000E+00  0.00000000E+00
  0.00000000E+00  0.00000000E+00  0.00000000E+00
  0.00000000E+00  0.00000000E+00  0.00000000E+00
  0.00000000E+00  0.00000000E+00  0.00000000E+00
  0.00000000E+00  0.00000000E+00  0.00000000E+00
  0.00000000E+00  0.00000000E+00  0.00000000E+00
  0.00000000E+00  0.00000000E+00  0.00000000E+00
  0.00000000E+00  0.00000000E+00  0.00000000E+00
  0.00000000E+00  0.00000000E+00  0.00000000E+00
  0.00000000E+00  0.00000000E+00  0.00000000E+00
  0.00000000E+00  0.00000000E+00  0.00000000E+00
  0.00000000E+00  0.00000000E+00  0.00000000E+00
  0.00000000E+00  0.00000000E+00  0.00000000E+00
  0.00000000E+00  0.00000000E+00  0.00000000E+00
