# Compound: Li48O24S24Fe24. Old comment:
   1.00000000000000     
    11.7357272399999992   -0.0574428600000000    0.0000000000000000
     0.0548078800000000   11.2183349000000003    0.0000000000000000
     0.0000000000000000    0.0000000000000000   11.1956200999999993
   Li   O    S    Fe
    48    24    24    24
Direct
  0.0354170566999983  0.3627754700000025  0.3564814850000033
  0.3687503900000024  0.3627754700000025  0.3564814850000033
  0.7020837232999995  0.3627754700000025  0.3564814850000033
  0.0354170566999983  0.8627754700000025  0.3564814850000033
  0.3687503900000024  0.8627754700000025  0.3564814850000033
  0.7020837232999995  0.8627754700000025  0.3564814850000033
  0.0354170566999983  0.3627754700000025  0.8564814850000033
  0.3687503900000024  0.3627754700000025  0.8564814850000033
  0.7020837232999995  0.3627754700000025  0.8564814850000033
  0.0354170566999983  0.8627754700000025  0.8564814850000033
  0.3687503900000024  0.8627754700000025  0.8564814850000033
  0.7020837232999995  0.8627754700000025  0.8564814850000033
  0.0354170566999983  0.1127754700000025  0.1435185149999967
  0.3687503900000024  0.1127754700000025  0.1435185149999967
  0.7020837232999995  0.1127754700000025  0.1435185149999967
  0.0354170566999983  0.6127754700000025  0.1435185149999967
  0.3687503900000024  0.6127754700000025  0.1435185149999967
  0.7020837232999995  0.6127754700000025  0.1435185149999967
  0.0354170566999983  0.1127754700000025  0.6435185149999967
  0.3687503900000024  0.1127754700000025  0.6435185149999967
  0.7020837232999995  0.1127754700000025  0.6435185149999967
  0.0354170566999983  0.6127754700000025  0.6435185149999967
  0.3687503900000024  0.6127754700000025  0.6435185149999967
  0.7020837232999995  0.6127754700000025  0.6435185149999967
  0.2020945833000027  0.2189806000000019  0.2724621500000026
  0.5354279167000016  0.2189806000000019  0.2724621500000026
  0.8687612499999986  0.2189806000000019  0.2724621500000026
  0.2020945833000027  0.7189806000000019  0.2724621500000026
  0.5354279167000016  0.7189806000000019  0.2724621500000026
  0.8687612499999986  0.7189806000000019  0.2724621500000026
  0.2020945833000027  0.2189806000000019  0.7724621500000026
  0.5354279167000016  0.2189806000000019  0.7724621500000026
  0.8687612499999986  0.2189806000000019  0.7724621500000026
  0.2020945833000027  0.7189806000000019  0.7724621500000026
  0.5354279167000016  0.7189806000000019  0.7724621500000026
  0.8687612499999986  0.7189806000000019  0.7724621500000026
  0.2020945833000027  0.4689806000000019  0.2275378499999974
  0.5354279167000016  0.4689806000000019  0.2275378499999974
  0.8687612499999986  0.4689806000000019  0.2275378499999974
  0.2020945833000027  0.9689806000000019  0.2275378499999974
  0.5354279167000016  0.9689806000000019  0.2275378499999974
  0.8687612499999986  0.9689806000000019  0.2275378499999974
  0.2020945833000027  0.4689806000000019  0.7275378499999974
  0.5354279167000016  0.4689806000000019  0.7275378499999974
  0.8687612499999986  0.4689806000000019  0.7275378499999974
  0.2020945833000027  0.9689806000000019  0.7275378499999974
  0.5354279167000016  0.9689806000000019  0.7275378499999974
  0.8687612499999986  0.9689806000000019  0.7275378499999974
  0.2020906432999965  0.3676923749999972  0.3737650899999991
  0.5354239767000024  0.3676923749999972  0.3737650899999991
  0.8687573099999994  0.3676923749999972  0.3737650899999991
  0.2020906432999965  0.8676923749999972  0.3737650899999991
  0.5354239767000024  0.8676923749999972  0.3737650899999991
  0.8687573099999994  0.8676923749999972  0.3737650899999991
  0.2020906432999965  0.3676923749999972  0.8737650899999991
  0.5354239767000024  0.3676923749999972  0.8737650899999991
  0.8687573099999994  0.3676923749999972  0.8737650899999991
  0.2020906432999965  0.8676923749999972  0.8737650899999991
  0.5354239767000024  0.8676923749999972  0.8737650899999991
  0.8687573099999994  0.8676923749999972  0.8737650899999991
  0.2020906432999965  0.1176923749999972  0.1262349100000009
  0.5354239767000024  0.1176923749999972  0.1262349100000009
  0.8687573099999994  0.1176923749999972  0.1262349100000009
  0.2020906432999965  0.6176923749999972  0.1262349100000009
  0.5354239767000024  0.6176923749999972  0.1262349100000009
  0.8687573099999994  0.6176923749999972  0.1262349100000009
  0.2020906432999965  0.1176923749999972  0.6262349100000009
  0.5354239767000024  0.1176923749999972  0.6262349100000009
  0.8687573099999994  0.1176923749999972  0.6262349100000009
  0.2020906432999965  0.6176923749999972  0.6262349100000009
  0.5354239767000024  0.6176923749999972  0.6262349100000009
  0.8687573099999994  0.6176923749999972  0.6262349100000009
  0.0354275099999981  0.3701194650000019  0.1211876814000021
  0.3687608433000023  0.3701194650000019  0.1202944750000015
  0.7020941767000011  0.3701194650000019  0.1202944750000015
  0.0354275099999981  0.8701194650000019  0.1202944750000015
  0.3687608433000023  0.8701194650000019  0.1202944750000015
  0.7020941767000011  0.8701194650000019  0.1202944750000015
  0.0354275099999981  0.3701194650000019  0.6202944750000015
  0.3687608433000023  0.3701194650000019  0.6202944750000015
  0.7020941767000011  0.3701194650000019  0.6202944750000015
  0.0354275099999981  0.8701194650000019  0.6202944750000015
  0.3687608433000023  0.8701194650000019  0.6202944750000015
  0.7020941767000011  0.8701194650000019  0.6202944750000015
  0.0354275099999981  0.1201194650000019  0.3797055249999985
  0.3687608433000023  0.1201194650000019  0.3797055249999985
  0.7020941767000011  0.1201194650000019  0.3797055249999985
  0.0354275099999981  0.6201194650000019  0.3797055249999985
  0.3687608433000023  0.6201194650000019  0.3797055249999985
  0.7020941767000011  0.6201194650000019  0.3797055249999985
  0.0354275099999981  0.1201194650000019  0.8797055249999985
  0.3687608433000023  0.1201194650000019  0.8797055249999985
  0.7020941767000011  0.1201194650000019  0.8797055249999985
  0.0354275099999981  0.6201194650000019  0.8797055249999985
  0.3687608433000023  0.6201194650000019  0.8797055249999985
  0.7020941767000011  0.6201194650000019  0.8797055249999985
  0.2020938699999988  0.0122530900000015  0.4800346250000018
  0.5354272033000029  0.0122530900000015  0.4800346250000018
  0.8687605367000018  0.0122530900000015  0.4800346250000018
  0.2020938699999988  0.5122530900000015  0.4800346250000018
  0.5354272033000029  0.5122530900000015  0.4800346250000018
  0.8687605367000018  0.5122530900000015  0.4800346250000018
  0.2020938699999988  0.0122530900000015  0.9800346250000018
  0.5354272033000029  0.0122530900000015  0.9800346250000018
  0.8687605367000018  0.0122530900000015  0.9800346250000018
  0.2020938699999988  0.5122530900000015  0.9800346250000018
  0.5354272033000029  0.5122530900000015  0.9800346250000018
  0.8687605367000018  0.5122530900000015  0.9800346250000018
  0.2020938699999988  0.2622530900000015  0.0199653749999982
  0.5354272033000029  0.2622530900000015  0.0199653749999982
  0.8687605367000018  0.2622530900000015  0.0199653749999982
  0.2020938699999988  0.7622530900000015  0.0199653749999982
  0.5354272033000029  0.7622530900000015  0.0199653749999982
  0.8687605367000018  0.7622530900000015  0.0199653749999982
  0.2020938699999988  0.2622530900000015  0.5199653749999982
  0.5354272033000029  0.2622530900000015  0.5199653749999982
  0.8687605367000018  0.2622530900000015  0.5199653749999982
  0.2020938699999988  0.7622530900000015  0.5199653749999982
  0.5354272033000029  0.7622530900000015  0.5199653749999982
  0.8687605367000018  0.7622530900000015  0.5199653749999982
 
  0.00000000E+00  0.00000000E+00  0.00000000E+00
  0.00000000E+00  0.00000000E+00  0.00000000E+00
  0.00000000E+00  0.00000000E+00  0.00000000E+00
  0.00000000E+00  0.00000000E+00  0.00000000E+00
  0.00000000E+00  0.00000000E+00  0.00000000E+00
  0.00000000E+00  0.00000000E+00  0.00000000E+00
  0.00000000E+00  0.00000000E+00  0.00000000E+00
  0.00000000E+00  0.00000000E+00  0.00000000E+00
  0.00000000E+00  0.00000000E+00  0.00000000E+00
  0.00000000E+00  0.00000000E+00  0.00000000E+00
  0.00000000E+00  0.00000000E+00  0.00000000E+00
  0.00000000E+00  0.00000000E+00  0.00000000E+00
  0.00000000E+00  0.00000000E+00  0.00000000E+00
  0.00000000E+00  0.00000000E+00  0.00000000E+00
  0.00000000E+00  0.00000000E+00  0.00000000E+00
  0.00000000E+00  0.00000000E+00  0.00000000E+00
  0.00000000E+00  0.00000000E+00  0.00000000E+00
  0.00000000E+00  0.00000000E+00  0.00000000E+00
  0.00000000E+00  0.00000000E+00  0.00000000E+00
  0.00000000E+00  0.00000000E+00  0.00000000E+00
  0.00000000E+00  0.00000000E+00  0.00000000E+00
  0.00000000E+00  0.00000000E+00  0.00000000E+00
  0.00000000E+00  0.00000000E+00  0.00000000E+00
  0.00000000E+00  0.00000000E+00  0.00000000E+00
  0.00000000E+00  0.00000000E+00  0.00000000E+00
  0.00000000E+00  0.00000000E+00  0.00000000E+00
  0.00000000E+00  0.00000000E+00  0.00000000E+00
  0.00000000E+00  0.00000000E+00  0.00000000E+00
  0.00000000E+00  0.00000000E+00  0.00000000E+00
  0.00000000E+00  0.00000000E+00  0.00000000E+00
  0.00000000E+00  0.00000000E+00  0.00000000E+00
  0.00000000E+00  0.00000000E+00  0.00000000E+00
  0.00000000E+00  0.00000000E+00  0.00000000E+00
  0.00000000E+00  0.00000000E+00  0.00000000E+00
  0.00000000E+00  0.00000000E+00  0.00000000E+00
  0.00000000E+00  0.00000000E+00  0.00000000E+00
  0.00000000E+00  0.00000000E+00  0.00000000E+00
  0.00000000E+00  0.00000000E+00  0.00000000E+00
  0.00000000E+00  0.00000000E+00  0.00000000E+00
  0.00000000E+00  0.00000000E+00  0.00000000E+00
  0.00000000E+00  0.00000000E+00  0.00000000E+00
  0.00000000E+00  0.00000000E+00  0.00000000E+00
  0.00000000E+00  0.00000000E+00  0.00000000E+00
  0.00000000E+00  0.00000000E+00  0.00000000E+00
  0.00000000E+00  0.00000000E+00  0.00000000E+00
  0.00000000E+00  0.00000000E+00  0.00000000E+00
  0.00000000E+00  0.00000000E+00  0.00000000E+00
  0.00000000E+00  0.00000000E+00  0.00000000E+00
  0.00000000E+00  0.00000000E+00  0.00000000E+00
  0.00000000E+00  0.00000000E+00  0.00000000E+00
  0.00000000E+00  0.00000000E+00  0.00000000E+00
  0.00000000E+00  0.00000000E+00  0.00000000E+00
  0.00000000E+00  0.00000000E+00  0.00000000E+00
  0.00000000E+00  0.00000000E+00  0.00000000E+00
  0.00000000E+00  0.00000000E+00  0.00000000E+00
  0.00000000E+00  0.00000000E+00  0.00000000E+00
  0.00000000E+00  0.00000000E+00  0.00000000E+00
  0.00000000E+00  0.00000000E+00  0.00000000E+00
  0.00000000E+00  0.00000000E+00  0.00000000E+00
  0.00000000E+00  0.00000000E+00  0.00000000E+00
  0.00000000E+00  0.00000000E+00  0.00000000E+00
  0.00000000E+00  0.00000000E+00  0.00000000E+00
  0.00000000E+00  0.00000000E+00  0.00000000E+00
  0.00000000E+00  0.00000000E+00  0.00000000E+00
  0.00000000E+00  0.00000000E+00  0.00000000E+00
  0.00000000E+00  0.00000000E+00  0.00000000E+00
  0.00000000E+00  0.00000000E+00  0.00000000E+00
  0.00000000E+00  0.00000000E+00  0.00000000E+00
  0.00000000E+00  0.00000000E+00  0.00000000E+00
  0.00000000E+00  0.00000000E+00  0.00000000E+00
  0.00000000E+00  0.00000000E+00  0.00000000E+00
  0.00000000E+00  0.00000000E+00  0.00000000E+00
  0.00000000E+00  0.00000000E+00  0.00000000E+00
  0.00000000E+00  0.00000000E+00  0.00000000E+00
  0.00000000E+00  0.00000000E+00  0.00000000E+00
  0.00000000E+00  0.00000000E+00  0.00000000E+00
  0.00000000E+00  0.00000000E+00  0.00000000E+00
  0.00000000E+00  0.00000000E+00  0.00000000E+00
  0.00000000E+00  0.00000000E+00  0.00000000E+00
  0.00000000E+00  0.00000000E+00  0.00000000E+00
  0.00000000E+00  0.00000000E+00  0.00000000E+00
  0.00000000E+00  0.00000000E+00  0.00000000E+00
  0.00000000E+00  0.00000000E+00  0.00000000E+00
  0.00000000E+00  0.00000000E+00  0.00000000E+00
  0.00000000E+00  0.00000000E+00  0.00000000E+00
  0.00000000E+00  0.00000000E+00  0.00000000E+00
  0.00000000E+00  0.00000000E+00  0.00000000E+00
  0.00000000E+00  0.00000000E+00  0.00000000E+00
  0.00000000E+00  0.00000000E+00  0.00000000E+00
  0.00000000E+00  0.00000000E+00  0.00000000E+00
  0.00000000E+00  0.00000000E+00  0.00000000E+00
  0.00000000E+00  0.00000000E+00  0.00000000E+00
  0.00000000E+00  0.00000000E+00  0.00000000E+00
  0.00000000E+00  0.00000000E+00  0.00000000E+00
  0.00000000E+00  0.00000000E+00  0.00000000E+00
  0.00000000E+00  0.00000000E+00  0.00000000E+00
  0.00000000E+00  0.00000000E+00  0.00000000E+00
  0.00000000E+00  0.00000000E+00  0.00000000E+00
  0.00000000E+00  0.00000000E+00  0.00000000E+00
  0.00000000E+00  0.00000000E+00  0.00000000E+00
  0.00000000E+00  0.00000000E+00  0.00000000E+00
  0.00000000E+00  0.00000000E+00  0.00000000E+00
  0.00000000E+00  0.00000000E+00  0.00000000E+00
  0.00000000E+00  0.00000000E+00  0.00000000E+00
  0.00000000E+00  0.00000000E+00  0.00000000E+00
  0.00000000E+00  0.00000000E+00  0.00000000E+00
  0.00000000E+00  0.00000000E+00  0.00000000E+00
  0.00000000E+00  0.00000000E+00  0.00000000E+00
  0.00000000E+00  0.00000000E+00  0.00000000E+00
  0.00000000E+00  0.00000000E+00  0.00000000E+00
  0.00000000E+00  0.00000000E+00  0.00000000E+00
  0.00000000E+00  0.00000000E+00  0.00000000E+00
  0.00000000E+00  0.00000000E+00  0.00000000E+00
  0.00000000E+00  0.00000000E+00  0.00000000E+00
  0.00000000E+00  0.00000000E+00  0.00000000E+00
  0.00000000E+00  0.00000000E+00  0.00000000E+00
  0.00000000E+00  0.00000000E+00  0.00000000E+00
  0.00000000E+00  0.00000000E+00  0.00000000E+00
  0.00000000E+00  0.00000000E+00  0.00000000E+00
  0.00000000E+00  0.00000000E+00  0.00000000E+00
