# Compound: Fe24Li31O16S24. Old comment:
   1.0000000000000000     
     7.8866538400000001   -7.9475566999999998    0.0601846200000000
     7.3433505600000002    7.9467915400000004   -2.8792872599999999
    -0.0478291200000000   -0.1071026000000000   10.5527142699999992
   Fe   Li   O    S 
    24    31    16    24
Direct
  0.2590377020040845  0.6635544739750332  0.6045221304610865
  0.2326386778838540  0.3336061631168080  0.3993251406269430
  0.1227629640415216  0.3250089529943614  0.8032670608904153
  0.3728367222177968  0.5790863046004598  0.8210553908751588
  0.8758573680224637  0.1757997065582120  0.1967657103936886
  0.1263061747281023  0.4212463722709803  0.1829448454128793
  0.0178070602733972  0.9168305973891814  0.6015756619934240
  0.9918857425731925  0.5864973612112737  0.3967655102690588
  0.8670250184088566  0.5719038944688716  0.7894291001048521
  0.1239647390542500  0.8285976866884487  0.8177327579546151
  0.6266956626573651  0.4286189812800534  0.2000607344478403
  0.8770465895966968  0.6699691134820169  0.1792815354182619
  0.7642143514327190  0.1655034324919987  0.6017685303818647
  0.7434241509327193  0.8357960179861936  0.3968764374831384
  0.6259425194240525  0.8198517266034980  0.7960299542464611
  0.8739368348470919  0.0773213238365488  0.8142980277039408
  0.3830642536844694  0.6783320632232265  0.2093373620581073
  0.6247334823924467  0.9198783230125791  0.1867048920965525
  0.5106133182582050  0.4136811485559220  0.6047458842953726
  0.4863589121379400  0.0827639122010407  0.3995936121605489
  0.3744142267411067  0.0740846838496335  0.8044205367205085
  0.6262871209046325  0.3298689445602750  0.8145303382608946
  0.1274502715209894  0.9250622665246074  0.1971527929246250
  0.3766706011554564  0.1727094007980051  0.1865367774932932
  0.4718967798231536  0.4720140627907755  0.0042317577049831
  0.0213599824777524  0.5243329611853701  0.9924230026893216
  0.9759598543394228  0.3769503643173807  0.6059127813874072
  0.0225944762568112  0.1203614915825202  0.3922136944710416
  0.8747461999425121  0.3372302622237318  0.8437054130033418
  0.1210817694009830  0.5662493332339860  0.7764742701155870
  0.1249519915716139  0.1633472974957115  0.1550757061011927
  0.3807379940266237  0.4411764127600282  0.2418878210071819
  0.2289888899357562  0.7258288872626032  0.0080254260291391
  0.7796511819180680  0.7795403943079233  0.9970462354120802
  0.7750033039611133  0.3753814369590776  0.3949446505678856
  0.6253703831282512  0.5894958640040204  0.8428410262966352
  0.8690486681006732  0.8074789196679332  0.7557904335516638
  0.8741056264319098  0.4151869290207243  0.1561663888608812
  0.1290788582234412  0.6837718496836304  0.2236105307567950
  0.9739307438480993  0.9759128514367303  0.0030570989832554
  0.5265078588113273  0.0204600715136604  0.9961839690403087
  0.4737263325475160  0.8774974824317228  0.6080598237767514
  0.5915463782878260  0.6228823284690918  0.4609698307041305
  0.3770299432263147  0.8344790042778977  0.8445713156373345
  0.6219327580747953  0.0665892313475870  0.7738536663841572
  0.6257587828177933  0.6609952338635154  0.1555002811494156
  0.8788254674811941  0.9341261396676035  0.2249100372486856
  0.7245648201313740  0.2286081917545705  0.0044027923981819
  0.2761648210803703  0.2739592845430789  0.9973810561129852
  0.2278245194482466  0.1297197767635645  0.6084863049559149
  0.2736129402909884  0.8723128755659881  0.3947116342135618
  0.1254152924216279  0.0867679976115341  0.8451652521101327
  0.3717064710388573  0.3158540508654061  0.7753281765039354
  0.3749777970898953  0.9130898424488504  0.1558488060959852
  0.6285494745536339  0.1837024154838202  0.2275172726960293
  0.9962385487058638  0.4508564245840191  0.8027288630331348
  0.2469117761694945  0.7019668096445099  0.8140445901916354
  0.0018652856783069  0.0503172869319841  0.1941114596951866
  0.2523408098139099  0.3001324517731628  0.1935954655400219
  0.7508747908490093  0.7058212975571965  0.8159137190231917
  0.9981627715013947  0.9498045406416384  0.8072957749990418
  0.7506806064641172  0.3008034197925103  0.1952116191900984
  0.0035822402939161  0.5480305991010593  0.1870069261341563
  0.5003632398139164  0.9492110317858443  0.8056631589846356
  0.7493200323663339  0.2010650668028628  0.8092417543363249
  0.5014124037073392  0.5456370214351191  0.1883045467175202
  0.7524049939456651  0.7984106608015153  0.1896381188048949
  0.2488118903126091  0.1999371578140996  0.8065424577224952
  0.4983604250630697  0.4513539732677626  0.8112438667752331
  0.2542658445772625  0.7996324694645187  0.1981379965972274
  0.5009742074628514  0.0486501849685872  0.1933354498995809
  0.0003671371514167  0.2496219803027568  0.9993730011369170
  0.2465630089752334  0.4961593971632284  0.9951258187107913
  0.0058972151625013  0.3466654658392541  0.3658422734836895
  0.2408839895876951  0.5880988426948288  0.3684118525184847
  0.9950781366452164  0.1525629076211862  0.6329859096635754
  0.2543875714383457  0.4126197676987078  0.6333353976740944
  0.7506754145736095  0.4978007627229232  0.9977269856797351
  0.0048196891082530  0.7543818275827697  0.0068054960993758
  0.7696132735539419  0.5957375444504848  0.3571045550776243
  0.9961395115737256  0.8376550376183999  0.3675245673702184
  0.7420594700653670  0.3986153438256523  0.6319635574768939
  0.0105962311990153  0.6620609826388297  0.6322596655910383
  0.4986712766204797  0.7514972528713887  0.0044866382730544
  0.7514238776289933  0.0049502936804652  0.0044076371620939
  0.5098759423398799  0.8475429330813350  0.3709492507043620
  0.7469923779070290  0.0858129173647103  0.3667803372748417
  0.4830650197770347  0.6554419833330783  0.6470100820967670
  0.7532347520863574  0.9158716025234875  0.6317629706047612
  0.2507146519766499  0.0008528161507523  0.0010212626160262
  0.4992036573683343  0.2458355825019457  0.9980405952751499
  0.2560953228411316  0.0975073173058666  0.3678380404809714
  0.4986422405811637  0.3382354339216413  0.3695202318858992
  0.2446007249000050  0.9033580930715861  0.6348790780922539
  0.5032639111098466  0.1637285367973950  0.6339267770367814

             NaN             NaN             NaN
             NaN             NaN             NaN
             NaN             NaN             NaN
             NaN             NaN             NaN
             NaN             NaN             NaN
             NaN             NaN             NaN
             NaN             NaN             NaN
             NaN             NaN             NaN
             NaN             NaN             NaN
             NaN             NaN             NaN
             NaN             NaN             NaN
             NaN             NaN             NaN
             NaN             NaN             NaN
             NaN             NaN             NaN
             NaN             NaN             NaN
             NaN             NaN             NaN
             NaN             NaN             NaN
             NaN             NaN             NaN
             NaN             NaN             NaN
             NaN             NaN             NaN
             NaN             NaN             NaN
             NaN             NaN             NaN
             NaN             NaN             NaN
             NaN             NaN             NaN
             NaN             NaN             NaN
             NaN             NaN             NaN
             NaN             NaN             NaN
             NaN             NaN             NaN
             NaN             NaN             NaN
             NaN             NaN             NaN
             NaN             NaN             NaN
             NaN             NaN             NaN
             NaN             NaN             NaN
             NaN             NaN             NaN
             NaN             NaN             NaN
             NaN             NaN             NaN
             NaN             NaN             NaN
             NaN             NaN             NaN
             NaN             NaN             NaN
             NaN             NaN             NaN
             NaN             NaN             NaN
             NaN             NaN             NaN
             NaN             NaN             NaN
             NaN             NaN             NaN
             NaN             NaN             NaN
             NaN             NaN             NaN
             NaN             NaN             NaN
             NaN             NaN             NaN
             NaN             NaN             NaN
             NaN             NaN             NaN
             NaN             NaN             NaN
             NaN             NaN             NaN
             NaN             NaN             NaN
             NaN             NaN             NaN
             NaN             NaN             NaN
             NaN             NaN             NaN
             NaN             NaN             NaN
             NaN             NaN             NaN
             NaN             NaN             NaN
             NaN             NaN             NaN
             NaN             NaN             NaN
             NaN             NaN             NaN
             NaN             NaN             NaN
             NaN             NaN             NaN
             NaN             NaN             NaN
             NaN             NaN             NaN
             NaN             NaN             NaN
             NaN             NaN             NaN
             NaN             NaN             NaN
             NaN             NaN             NaN
             NaN             NaN             NaN
             NaN             NaN             NaN
             NaN             NaN             NaN
             NaN             NaN             NaN
             NaN             NaN             NaN
             NaN             NaN             NaN
             NaN             NaN             NaN
             NaN             NaN             NaN
             NaN             NaN             NaN
             NaN             NaN             NaN
             NaN             NaN             NaN
             NaN             NaN             NaN
             NaN             NaN             NaN
             NaN             NaN             NaN
             NaN             NaN             NaN
             NaN             NaN             NaN
             NaN             NaN             NaN
             NaN             NaN             NaN
             NaN             NaN             NaN
             NaN             NaN             NaN
             NaN             NaN             NaN
             NaN             NaN             NaN
             NaN             NaN             NaN
             NaN             NaN             NaN
             NaN             NaN             NaN
