# Compound: Fe24Li31O16S24. Old comment: Li4Fe3S3O2 Enum Minimum PATH3 INIT FRAME 02
  1.0000000000
  7.8866538400  -7.9475567000   0.0601846200
  7.3433505600   7.9467915400  -2.8792872600
 -0.0478291200  -0.1071026000  10.5527142700
Fe    Li    O     S
   24    31    16    24
Direct
  0.2645368200   0.6647239667   0.6019464067
  0.2347549533   0.3345266800   0.3986568900
  0.1236845133   0.3258512000   0.8028213867
  0.3757272000   0.5798762167   0.8149846867
  0.8745009900   0.1755030900   0.1982935400
  0.1246374567   0.4212648700   0.1846705033
  0.0155723400  -0.0841107767   0.6015946533
 -0.0174706900   0.5851130367   0.3983349067
  0.8704099200   0.5740124000   0.7926719733
  0.1251700233   0.8291483800   0.8160653067
  0.6256488533   0.4283511067   0.2015427267
  0.8736145667   0.6695608967   0.1842630200
  0.7645851100   0.1634064733   0.6018405267
  0.7328238400   0.8287188900   0.3991743433
  0.6258394833   0.8195596800   0.7938391167
  0.8755608767   0.0795168333   0.8163487233
  0.3784509967   0.6760590600   0.2034341033
  0.6244259200  -0.0792162300   0.1871027667
  0.5191286300   0.4214169267   0.6010350800
  0.4855608300   0.0859828300   0.3987396967
  0.3754205700   0.0741349700   0.8022024067
  0.6257645033   0.3289735433   0.8130532833
  0.1256424167  -0.0757713000   0.1970813367
  0.3743928933   0.1703053633   0.1840130200
  0.4749755600   0.4751967433   0.0025450567
  0.0222078500   0.5253411200  -0.0053910033
 -0.0221851300   0.3781288600   0.6061896767
  0.0221910567   0.1202795633   0.3928164467
  0.8747292767   0.3384264333   0.8437797033
  0.1224476067   0.5667818267   0.7738822433
  0.1235100267   0.1629464333   0.1553318767
  0.3783376233   0.4360879200   0.2326755467
  0.2271996133   0.7249547033   0.0053121800
  0.7769104000   0.7770507233  -0.0022163600
  0.7718114767   0.3757946467   0.3954216367
  0.6270176567   0.5885528733   0.8423585967
  0.8709273067   0.8116751333   0.7627571733
  0.8730791567   0.4138838900   0.1555083667
  0.1269628933   0.6833069267   0.2264910133
 -0.0266046133  -0.0250816433   0.0041746867
  0.5269233267   0.0205449533  -0.0045760100
  0.4769802233   0.8765360167   0.6055830333
  0.5929316600   0.6231358600   0.4656356100
  0.3775610633   0.8353056200   0.8440967033
  0.6232718333   0.0658237833   0.7740769967
  0.6239305500   0.6615476167   0.1557700200
  0.8765413267  -0.0661402933   0.2294656100
  0.7239928533   0.2285693933   0.0044834333
  0.2756241833   0.2746888467  -0.0042082900
  0.2278190400   0.1298163500   0.6073311833
  0.2719386767   0.8711149000   0.3935844933
  0.1263683967   0.0871175633   0.8442553800
  0.3734766867   0.3163276367   0.7705599867
  0.3744641000  -0.0878949033   0.1557411767
  0.6268513000   0.1839417067   0.2261720933
 -0.0023342700   0.4518832600   0.8042156100
  0.2487911533   0.7021047700   0.8106063567
  0.0003590533   0.0495339400   0.1950164867
  0.2506600267   0.2986622033   0.1918286167
  0.7509222567   0.7046288133   0.8122865867
 -0.0010628100  -0.0490165700   0.8084766667
  0.7498320767   0.3009920100   0.1954748667
  0.0006281700   0.5479047367   0.1900517767
  0.5008319633  -0.0513309933   0.8048321667
  0.7496373700   0.2015332067   0.8098787767
  0.5000770767   0.5470233000   0.1913932100
  0.7501744400   0.7981764933   0.1921475300
  0.2498380967   0.2008572000   0.8052182733
  0.4998941967   0.4518698533   0.8072504267
  0.2517546567   0.7987870433   0.1960297667
  0.5001853000   0.0480164433   0.1911557867
  0.0003645400   0.2503523967  -0.0006493667
  0.2482796767   0.4981576300  -0.0027338167
  0.0048204100   0.3466931100   0.3661469633
  0.2434744100   0.5866177533   0.3668784167
 -0.0046529200   0.1528813600   0.6332396633
  0.2532275000   0.4134303833   0.6329673500
  0.7494302833   0.4988789667  -0.0010509767
  0.0026827100   0.7528098167   0.0047175800
  0.7579525100   0.5966085200   0.3636012633
 -0.0041178167   0.8365549667   0.3674459433
  0.7449103567   0.3995187067   0.6331206833
  0.0084306433   0.6632759833   0.6323163333
  0.4986538767   0.7495094267   0.0022907567
  0.7512097333   0.0039842133   0.0041399300
  0.5053415767   0.8484466833   0.3675966667
  0.7447363067   0.0878476000   0.3668132767
  0.4903192967   0.6536873867   0.6357195767
  0.7552249967  -0.0835579400   0.6320665100
  0.2502964500   0.0001745767   0.0000985700
  0.4992036067   0.2474969000  -0.0018810500
  0.2549205233   0.0969613533   0.3669202667
  0.4950173000   0.3351700100   0.3679020633
  0.2447854533  -0.0964121767   0.6338193167
  0.5049421967   0.1615711733   0.6336075900
