# Compound: Li64Fe32S32O32. Old comment:
   1.00000000000000     
    15.4248220200000006    0.0000000000000000    0.0000000000000000
     0.0000000000000000   11.2102424200000002    0.0000000000000000
     0.0000000000000000    0.0000000000000000   11.2770269800000005
   Li   Fe   S    O 
    64    32    32    32
Direct
  0.1250000000000000  0.2508920414000002  0.4675100950000015
  0.6250000000000000  0.2500000000000000  0.4675100950000015
  0.1250000000000000  0.7500000000000000  0.4675100950000015
  0.6250000000000000  0.7500000000000000  0.4675100950000015
  0.1250000000000000  0.2500000000000000  0.9675100950000015
  0.6250000000000000  0.2500000000000000  0.9675100950000015
  0.1250000000000000  0.7500000000000000  0.9675100950000015
  0.6250000000000000  0.7500000000000000  0.9675100950000015
  0.1250000000000000  0.0000000000000000  0.2824899049999985
  0.6250000000000000  0.0000000000000000  0.2824899049999985
  0.1250000000000000  0.5000000000000000  0.2824899049999985
  0.6250000000000000  0.5000000000000000  0.2824899049999985
  0.1250000000000000  0.0000000000000000  0.7824899049999985
  0.6250000000000000  0.0000000000000000  0.7824899049999985
  0.1250000000000000  0.5000000000000000  0.7824899049999985
  0.6250000000000000  0.5000000000000000  0.7824899049999985
  0.3750000000000000  0.2500000000000000  0.0324899049999985
  0.8750000000000000  0.2500000000000000  0.0324899049999985
  0.3750000000000000  0.7500000000000000  0.0324899049999985
  0.8750000000000000  0.7500000000000000  0.0324899049999985
  0.3750000000000000  0.2500000000000000  0.5324899049999985
  0.8750000000000000  0.2500000000000000  0.5324899049999985
  0.3750000000000000  0.7500000000000000  0.5324899049999985
  0.8750000000000000  0.7500000000000000  0.5324899049999985
  0.3750000000000000  0.0000000000000000  0.2175100950000015
  0.8750000000000000  0.0000000000000000  0.2175100950000015
  0.3750000000000000  0.5000000000000000  0.2175100950000015
  0.8750000000000000  0.5000000000000000  0.2175100950000015
  0.3750000000000000  0.0000000000000000  0.7175100950000015
  0.8750000000000000  0.0000000000000000  0.7175100950000015
  0.3750000000000000  0.5000000000000000  0.7175100950000015
  0.8750000000000000  0.5000000000000000  0.7175100950000015
  0.2692406800000029  0.3750000000000000  0.3750000000000000
  0.7692406800000029  0.3750000000000000  0.3750000000000000
  0.2692406800000029  0.8750000000000000  0.3750000000000000
  0.7692406800000029  0.8750000000000000  0.3750000000000000
  0.2692406800000029  0.3750000000000000  0.8750000000000000
  0.7692406800000029  0.3750000000000000  0.8750000000000000
  0.2692406800000029  0.8750000000000000  0.8750000000000000
  0.7692406800000029  0.8750000000000000  0.8750000000000000
  0.2307593199999971  0.1250000000000000  0.1250000000000000
  0.7307593199999971  0.1250000000000000  0.1250000000000000
  0.2307593199999971  0.6250000000000000  0.1250000000000000
  0.7307593199999971  0.6250000000000000  0.1250000000000000
  0.2307593199999971  0.1250000000000000  0.6250000000000000
  0.7307593199999971  0.1250000000000000  0.6250000000000000
  0.2307593199999971  0.6250000000000000  0.6250000000000000
  0.7307593199999971  0.6250000000000000  0.6250000000000000
  0.0192406800000029  0.3750000000000000  0.1250000000000000
  0.5192406800000029  0.3750000000000000  0.1250000000000000
  0.0192406800000029  0.8750000000000000  0.1250000000000000
  0.5192406800000029  0.8750000000000000  0.1250000000000000
  0.0192406800000029  0.3750000000000000  0.6250000000000000
  0.5192406800000029  0.3750000000000000  0.6250000000000000
  0.0192406800000029  0.8750000000000000  0.6250000000000000
  0.5192406800000029  0.8750000000000000  0.6250000000000000
  0.4807593199999971  0.1250000000000000  0.3750000000000000
  0.9807593199999971  0.1250000000000000  0.3750000000000000
  0.4807593199999971  0.6250000000000000  0.3750000000000000
  0.9807593199999971  0.6250000000000000  0.3750000000000000
  0.4807593199999971  0.1250000000000000  0.8750000000000000
  0.9807593199999971  0.1250000000000000  0.8750000000000000
  0.4807593199999971  0.6250000000000000  0.8750000000000000
  0.9807593199999971  0.6250000000000000  0.8750000000000000
  0.4860664750000012  0.3750000000000000  0.3750000000000000
  0.9860664750000012  0.3750000000000000  0.3750000000000000
  0.4860664750000012  0.8750000000000000  0.3750000000000000
  0.9860664750000012  0.8750000000000000  0.3750000000000000
  0.4860664750000012  0.3750000000000000  0.8750000000000000
  0.9860664750000012  0.3750000000000000  0.8750000000000000
  0.4860664750000012  0.8750000000000000  0.8750000000000000
  0.9860664750000012  0.8750000000000000  0.8750000000000000
  0.0139335249999988  0.1250000000000000  0.1250000000000000
  0.5139335249999988  0.1250000000000000  0.1250000000000000
  0.0139335249999988  0.6250000000000000  0.1250000000000000
  0.5139335249999988  0.6250000000000000  0.1250000000000000
  0.0139335249999988  0.1250000000000000  0.6250000000000000
  0.5139335249999988  0.1250000000000000  0.6250000000000000
  0.0139335249999988  0.6250000000000000  0.6250000000000000
  0.5139335249999988  0.6250000000000000  0.6250000000000000
  0.2360664750000012  0.3750000000000000  0.1250000000000000
  0.7360664750000012  0.3750000000000000  0.1250000000000000
  0.2360664750000012  0.8750000000000000  0.1250000000000000
  0.7360664750000012  0.8750000000000000  0.1250000000000000
  0.2360664750000012  0.3750000000000000  0.6250000000000000
  0.7360664750000012  0.3750000000000000  0.6250000000000000
  0.2360664750000012  0.8750000000000000  0.6250000000000000
  0.7360664750000012  0.8750000000000000  0.6250000000000000
  0.2639335249999988  0.1250000000000000  0.3750000000000000
  0.7639335249999988  0.1250000000000000  0.3750000000000000
  0.2639335249999988  0.6250000000000000  0.3750000000000000
  0.7639335249999988  0.6250000000000000  0.3750000000000000
  0.2639335249999988  0.1250000000000000  0.8750000000000000
  0.7639335249999988  0.1250000000000000  0.8750000000000000
  0.2639335249999988  0.6250000000000000  0.8750000000000000
  0.7639335249999988  0.6250000000000000  0.8750000000000000
  0.1250000000000000  0.0000000000000000  0.5010605299999966
  0.6250000000000000  0.0000000000000000  0.5010605299999966
  0.1250000000000000  0.5000000000000000  0.5010605299999966
  0.6250000000000000  0.5000000000000000  0.5010605299999966
  0.1250000000000000  0.0000000000000000  0.0010605299999966
  0.6250000000000000  0.0000000000000000  0.0010605299999966
  0.1250000000000000  0.5000000000000000  0.0010605299999966
  0.6250000000000000  0.5000000000000000  0.0010605299999966
  0.1250000000000000  0.2500000000000000  0.2489394700000034
  0.6250000000000000  0.2500000000000000  0.2489394700000034
  0.1250000000000000  0.7500000000000000  0.2489394700000034
  0.6250000000000000  0.7500000000000000  0.2489394700000034
  0.1250000000000000  0.2500000000000000  0.7489394700000034
  0.6250000000000000  0.2500000000000000  0.7489394700000034
  0.1250000000000000  0.7500000000000000  0.7489394700000034
  0.6250000000000000  0.7500000000000000  0.7489394700000034
  0.3750000000000000  0.0000000000000000  0.9989394700000034
  0.8750000000000000  0.0000000000000000  0.9989394700000034
  0.3750000000000000  0.5000000000000000  0.9989394700000034
  0.8750000000000000  0.5000000000000000  0.9989394700000034
  0.3750000000000000  0.0000000000000000  0.4989394700000034
  0.8750000000000000  0.0000000000000000  0.4989394700000034
  0.3750000000000000  0.5000000000000000  0.4989394700000034
  0.8750000000000000  0.5000000000000000  0.4989394700000034
  0.3750000000000000  0.2500000000000000  0.2510605299999966
  0.8750000000000000  0.2500000000000000  0.2510605299999966
  0.3750000000000000  0.7500000000000000  0.2510605299999966
  0.8750000000000000  0.7500000000000000  0.2510605299999966
  0.3750000000000000  0.2500000000000000  0.7510605299999966
  0.8750000000000000  0.2500000000000000  0.7510605299999966
  0.3750000000000000  0.7500000000000000  0.7510605299999966
  0.8750000000000000  0.7500000000000000  0.7510605299999966
  0.0000000000000000  0.2500000000000000  0.0000000000000000
  0.5000000000000000  0.2500000000000000  0.0000000000000000
  0.0000000000000000  0.7500000000000000  0.0000000000000000
  0.5000000000000000  0.7500000000000000  0.0000000000000000
  0.0000000000000000  0.2500000000000000  0.5000000000000000
  0.5000000000000000  0.2500000000000000  0.5000000000000000
  0.0000000000000000  0.7500000000000000  0.5000000000000000
  0.5000000000000000  0.7500000000000000  0.5000000000000000
  0.0000000000000000  0.0000000000000000  0.2500000000000000
  0.5000000000000000  0.0000000000000000  0.2500000000000000
  0.0000000000000000  0.5000000000000000  0.2500000000000000
  0.5000000000000000  0.5000000000000000  0.2500000000000000
  0.0000000000000000  0.0000000000000000  0.7500000000000000
  0.5000000000000000  0.0000000000000000  0.7500000000000000
  0.0000000000000000  0.5000000000000000  0.7500000000000000
  0.5000000000000000  0.5000000000000000  0.7500000000000000
  0.2500000000000000  0.2500000000000000  0.0000000000000000
  0.7500000000000000  0.2500000000000000  0.0000000000000000
  0.2500000000000000  0.7500000000000000  0.0000000000000000
  0.7500000000000000  0.7500000000000000  0.0000000000000000
  0.2500000000000000  0.2500000000000000  0.5000000000000000
  0.7500000000000000  0.2500000000000000  0.5000000000000000
  0.2500000000000000  0.7500000000000000  0.5000000000000000
  0.7500000000000000  0.7500000000000000  0.5000000000000000
  0.2500000000000000  0.0000000000000000  0.2500000000000000
  0.7500000000000000  0.0000000000000000  0.2500000000000000
  0.2500000000000000  0.5000000000000000  0.2500000000000000
  0.7500000000000000  0.5000000000000000  0.2500000000000000
  0.2500000000000000  0.0000000000000000  0.7500000000000000
  0.7500000000000000  0.0000000000000000  0.7500000000000000
  0.2500000000000000  0.5000000000000000  0.7500000000000000
  0.7500000000000000  0.5000000000000000  0.7500000000000000
 
  0.00000000E+00  0.00000000E+00  0.00000000E+00
  0.00000000E+00  0.00000000E+00  0.00000000E+00
  0.00000000E+00  0.00000000E+00  0.00000000E+00
  0.00000000E+00  0.00000000E+00  0.00000000E+00
  0.00000000E+00  0.00000000E+00  0.00000000E+00
  0.00000000E+00  0.00000000E+00  0.00000000E+00
  0.00000000E+00  0.00000000E+00  0.00000000E+00
  0.00000000E+00  0.00000000E+00  0.00000000E+00
  0.00000000E+00  0.00000000E+00  0.00000000E+00
  0.00000000E+00  0.00000000E+00  0.00000000E+00
  0.00000000E+00  0.00000000E+00  0.00000000E+00
  0.00000000E+00  0.00000000E+00  0.00000000E+00
  0.00000000E+00  0.00000000E+00  0.00000000E+00
  0.00000000E+00  0.00000000E+00  0.00000000E+00
  0.00000000E+00  0.00000000E+00  0.00000000E+00
  0.00000000E+00  0.00000000E+00  0.00000000E+00
  0.00000000E+00  0.00000000E+00  0.00000000E+00
  0.00000000E+00  0.00000000E+00  0.00000000E+00
  0.00000000E+00  0.00000000E+00  0.00000000E+00
  0.00000000E+00  0.00000000E+00  0.00000000E+00
  0.00000000E+00  0.00000000E+00  0.00000000E+00
  0.00000000E+00  0.00000000E+00  0.00000000E+00
  0.00000000E+00  0.00000000E+00  0.00000000E+00
  0.00000000E+00  0.00000000E+00  0.00000000E+00
  0.00000000E+00  0.00000000E+00  0.00000000E+00
  0.00000000E+00  0.00000000E+00  0.00000000E+00
  0.00000000E+00  0.00000000E+00  0.00000000E+00
  0.00000000E+00  0.00000000E+00  0.00000000E+00
  0.00000000E+00  0.00000000E+00  0.00000000E+00
  0.00000000E+00  0.00000000E+00  0.00000000E+00
  0.00000000E+00  0.00000000E+00  0.00000000E+00
  0.00000000E+00  0.00000000E+00  0.00000000E+00
  0.00000000E+00  0.00000000E+00  0.00000000E+00
  0.00000000E+00  0.00000000E+00  0.00000000E+00
  0.00000000E+00  0.00000000E+00  0.00000000E+00
  0.00000000E+00  0.00000000E+00  0.00000000E+00
  0.00000000E+00  0.00000000E+00  0.00000000E+00
  0.00000000E+00  0.00000000E+00  0.00000000E+00
  0.00000000E+00  0.00000000E+00  0.00000000E+00
  0.00000000E+00  0.00000000E+00  0.00000000E+00
  0.00000000E+00  0.00000000E+00  0.00000000E+00
  0.00000000E+00  0.00000000E+00  0.00000000E+00
  0.00000000E+00  0.00000000E+00  0.00000000E+00
  0.00000000E+00  0.00000000E+00  0.00000000E+00
  0.00000000E+00  0.00000000E+00  0.00000000E+00
  0.00000000E+00  0.00000000E+00  0.00000000E+00
  0.00000000E+00  0.00000000E+00  0.00000000E+00
  0.00000000E+00  0.00000000E+00  0.00000000E+00
  0.00000000E+00  0.00000000E+00  0.00000000E+00
  0.00000000E+00  0.00000000E+00  0.00000000E+00
  0.00000000E+00  0.00000000E+00  0.00000000E+00
  0.00000000E+00  0.00000000E+00  0.00000000E+00
  0.00000000E+00  0.00000000E+00  0.00000000E+00
  0.00000000E+00  0.00000000E+00  0.00000000E+00
  0.00000000E+00  0.00000000E+00  0.00000000E+00
  0.00000000E+00  0.00000000E+00  0.00000000E+00
  0.00000000E+00  0.00000000E+00  0.00000000E+00
  0.00000000E+00  0.00000000E+00  0.00000000E+00
  0.00000000E+00  0.00000000E+00  0.00000000E+00
  0.00000000E+00  0.00000000E+00  0.00000000E+00
  0.00000000E+00  0.00000000E+00  0.00000000E+00
  0.00000000E+00  0.00000000E+00  0.00000000E+00
  0.00000000E+00  0.00000000E+00  0.00000000E+00
  0.00000000E+00  0.00000000E+00  0.00000000E+00
  0.00000000E+00  0.00000000E+00  0.00000000E+00
  0.00000000E+00  0.00000000E+00  0.00000000E+00
  0.00000000E+00  0.00000000E+00  0.00000000E+00
  0.00000000E+00  0.00000000E+00  0.00000000E+00
  0.00000000E+00  0.00000000E+00  0.00000000E+00
  0.00000000E+00  0.00000000E+00  0.00000000E+00
  0.00000000E+00  0.00000000E+00  0.00000000E+00
  0.00000000E+00  0.00000000E+00  0.00000000E+00
  0.00000000E+00  0.00000000E+00  0.00000000E+00
  0.00000000E+00  0.00000000E+00  0.00000000E+00
  0.00000000E+00  0.00000000E+00  0.00000000E+00
  0.00000000E+00  0.00000000E+00  0.00000000E+00
  0.00000000E+00  0.00000000E+00  0.00000000E+00
  0.00000000E+00  0.00000000E+00  0.00000000E+00
  0.00000000E+00  0.00000000E+00  0.00000000E+00
  0.00000000E+00  0.00000000E+00  0.00000000E+00
  0.00000000E+00  0.00000000E+00  0.00000000E+00
  0.00000000E+00  0.00000000E+00  0.00000000E+00
  0.00000000E+00  0.00000000E+00  0.00000000E+00
  0.00000000E+00  0.00000000E+00  0.00000000E+00
  0.00000000E+00  0.00000000E+00  0.00000000E+00
  0.00000000E+00  0.00000000E+00  0.00000000E+00
  0.00000000E+00  0.00000000E+00  0.00000000E+00
  0.00000000E+00  0.00000000E+00  0.00000000E+00
  0.00000000E+00  0.00000000E+00  0.00000000E+00
  0.00000000E+00  0.00000000E+00  0.00000000E+00
  0.00000000E+00  0.00000000E+00  0.00000000E+00
  0.00000000E+00  0.00000000E+00  0.00000000E+00
  0.00000000E+00  0.00000000E+00  0.00000000E+00
  0.00000000E+00  0.00000000E+00  0.00000000E+00
  0.00000000E+00  0.00000000E+00  0.00000000E+00
  0.00000000E+00  0.00000000E+00  0.00000000E+00
  0.00000000E+00  0.00000000E+00  0.00000000E+00
  0.00000000E+00  0.00000000E+00  0.00000000E+00
  0.00000000E+00  0.00000000E+00  0.00000000E+00
  0.00000000E+00  0.00000000E+00  0.00000000E+00
  0.00000000E+00  0.00000000E+00  0.00000000E+00
  0.00000000E+00  0.00000000E+00  0.00000000E+00
  0.00000000E+00  0.00000000E+00  0.00000000E+00
  0.00000000E+00  0.00000000E+00  0.00000000E+00
  0.00000000E+00  0.00000000E+00  0.00000000E+00
  0.00000000E+00  0.00000000E+00  0.00000000E+00
  0.00000000E+00  0.00000000E+00  0.00000000E+00
  0.00000000E+00  0.00000000E+00  0.00000000E+00
  0.00000000E+00  0.00000000E+00  0.00000000E+00
  0.00000000E+00  0.00000000E+00  0.00000000E+00
  0.00000000E+00  0.00000000E+00  0.00000000E+00
  0.00000000E+00  0.00000000E+00  0.00000000E+00
  0.00000000E+00  0.00000000E+00  0.00000000E+00
  0.00000000E+00  0.00000000E+00  0.00000000E+00
  0.00000000E+00  0.00000000E+00  0.00000000E+00
  0.00000000E+00  0.00000000E+00  0.00000000E+00
  0.00000000E+00  0.00000000E+00  0.00000000E+00
  0.00000000E+00  0.00000000E+00  0.00000000E+00
  0.00000000E+00  0.00000000E+00  0.00000000E+00
  0.00000000E+00  0.00000000E+00  0.00000000E+00
  0.00000000E+00  0.00000000E+00  0.00000000E+00
  0.00000000E+00  0.00000000E+00  0.00000000E+00
  0.00000000E+00  0.00000000E+00  0.00000000E+00
  0.00000000E+00  0.00000000E+00  0.00000000E+00
  0.00000000E+00  0.00000000E+00  0.00000000E+00
  0.00000000E+00  0.00000000E+00  0.00000000E+00
  0.00000000E+00  0.00000000E+00  0.00000000E+00
  0.00000000E+00  0.00000000E+00  0.00000000E+00
  0.00000000E+00  0.00000000E+00  0.00000000E+00
  0.00000000E+00  0.00000000E+00  0.00000000E+00
  0.00000000E+00  0.00000000E+00  0.00000000E+00
  0.00000000E+00  0.00000000E+00  0.00000000E+00
  0.00000000E+00  0.00000000E+00  0.00000000E+00
  0.00000000E+00  0.00000000E+00  0.00000000E+00
  0.00000000E+00  0.00000000E+00  0.00000000E+00
  0.00000000E+00  0.00000000E+00  0.00000000E+00
  0.00000000E+00  0.00000000E+00  0.00000000E+00
  0.00000000E+00  0.00000000E+00  0.00000000E+00
  0.00000000E+00  0.00000000E+00  0.00000000E+00
  0.00000000E+00  0.00000000E+00  0.00000000E+00
  0.00000000E+00  0.00000000E+00  0.00000000E+00
  0.00000000E+00  0.00000000E+00  0.00000000E+00
  0.00000000E+00  0.00000000E+00  0.00000000E+00
  0.00000000E+00  0.00000000E+00  0.00000000E+00
  0.00000000E+00  0.00000000E+00  0.00000000E+00
  0.00000000E+00  0.00000000E+00  0.00000000E+00
  0.00000000E+00  0.00000000E+00  0.00000000E+00
  0.00000000E+00  0.00000000E+00  0.00000000E+00
  0.00000000E+00  0.00000000E+00  0.00000000E+00
  0.00000000E+00  0.00000000E+00  0.00000000E+00
  0.00000000E+00  0.00000000E+00  0.00000000E+00
  0.00000000E+00  0.00000000E+00  0.00000000E+00
  0.00000000E+00  0.00000000E+00  0.00000000E+00
  0.00000000E+00  0.00000000E+00  0.00000000E+00
  0.00000000E+00  0.00000000E+00  0.00000000E+00
  0.00000000E+00  0.00000000E+00  0.00000000E+00
  0.00000000E+00  0.00000000E+00  0.00000000E+00
  0.00000000E+00  0.00000000E+00  0.00000000E+00
  0.00000000E+00  0.00000000E+00  0.00000000E+00
  0.00000000E+00  0.00000000E+00  0.00000000E+00
