# Compound: Li2O2S2Fe3. Old comment: LFS
   1.0000000000000000     
     3.7930198900000001    0.0001074800000000    0.0000663900000000
     0.0001506900000000    5.6343697400000003    0.0416753400000000
     0.0000808700000000   -0.1627933100000000    5.6325174000000002
   Li   O    S    Fe
     2     2     2     3
Direct
  0.3177665099999984  0.5381954100000002  0.9530241399999966
  0.3177668299999965  0.9532276899999985  0.5380038300000010
  0.3180507300000031  0.2394913899999978  0.7503138800000002
  0.3180677000000003  0.7503516100000027  0.2393222999999978
  0.8186129899999983  0.2362139000000028  0.2362477200000015
  0.8180137800000011  0.7495272299999982  0.7493546899999970
  0.8181815499999985  0.6723465099999970  0.3058788399999983
  0.8181736900000018  0.3059895700000013  0.6722699800000029
  0.3187599199999980  0.0330632399999971  0.0329594399999991

  0.00000000E+00  0.00000000E+00  0.00000000E+00
  0.00000000E+00  0.00000000E+00  0.00000000E+00
  0.00000000E+00  0.00000000E+00  0.00000000E+00
  0.00000000E+00  0.00000000E+00  0.00000000E+00
  0.00000000E+00  0.00000000E+00  0.00000000E+00
  0.00000000E+00  0.00000000E+00  0.00000000E+00
  0.00000000E+00  0.00000000E+00  0.00000000E+00
  0.00000000E+00  0.00000000E+00  0.00000000E+00
  0.00000000E+00  0.00000000E+00  0.00000000E+00
