# Compound: Fe24Li31O16S24. Old comment:
   1.0000000000000000     
     7.8866538400000001   -7.9475566999999998    0.0601846200000000
     7.3433505600000002    7.9467915400000004   -2.8792872599999999
    -0.0478291200000000   -0.1071026000000000   10.5527142699999992
   Fe   Li   O    S 
    24    31    16    24
Direct
  0.2627210594405168  0.6591268693990867  0.6031693515518417
  0.2343874646712944  0.3340952676752247  0.3969342130163291
  0.1102130502638247  0.3243294229640594  0.8030743405241170
  0.3903659412149215  0.5862901637093448  0.8179604656518819
  0.8727896715006069  0.1725451029406314  0.1982310211802945
  0.1244121689228347  0.4221338514043431  0.1837632225641335
  0.0073733135086611  0.9142717636197440  0.6032728889184703
  0.9837662812584148  0.5815855659423700  0.3961504520760866
  0.9131573760665321  0.6226472685096063  0.7985266291187059
  0.1303353546997654  0.8348621286268889  0.8157313391553455
  0.6264383396244892  0.4281028276713085  0.2051543731580959
  0.8706238444153883  0.6688921931181677  0.1889772624282814
  0.7639829867653674  0.1599748894561955  0.6003960392273310
  0.7377102028914443  0.8393045247707857  0.3987901189623488
  0.6224635839263846  0.8130678713085455  0.8025944550449835
  0.8813101350891133  0.0984686825855702  0.8175953105545769
  0.3729525938724966  0.6735562759984178  0.1996303715003894
  0.6258489632848784  0.9194547221849502  0.1824886921272175
  0.5099602484457695  0.4172262897958090  0.6016436177333894
  0.4815106960208124  0.0798930023174236  0.3964892275785048
  0.3740206817069624  0.0752643152519354  0.8031990972101215
  0.6132760012637715  0.3216624891740683  0.8090614056851064
  0.1257805364705417  0.9267040468859749  0.2012368203872766
  0.3733109562125118  0.1696129813246233  0.1834187900677492
  0.4927062313048604  0.4864551276547260  1.0015305072594185
  0.0056479967674898  0.5110218210335555  0.9935881967733410
  0.9650647042054066  0.3779540477671083  0.6087836523884709
  0.0177445385343228  0.1158561480502406  0.3912965812463678
  0.8240154705193138  0.4207042047189584  0.8184558214210523
  0.1437306863623899  0.5589210738845264  0.7887875982881637
  0.1215511759183418  0.1657429599970099  0.1544349557125821
  0.3754562484866892  0.4323594531298420  0.2249519401483148
  0.2257225739572042  0.7253746107439243  0.0045461003436730
  0.7435281768871044  0.7287786774518767  0.9865363023350965
  0.7203822166861417  0.6127519719634792  0.6182752498270190
  0.7773355902582418  0.3730983870251005  0.3901770414902901
  0.8588258145167246  0.8498654257082356  0.7944709264839701
  0.8723374149017861  0.4099590632376143  0.1576470619043949
  0.1233820470754517  0.6823886926669068  0.2192989915224947
  0.9757169085313557  0.9793751088235736  0.0035065473636571
  0.5300885169647732  0.0238206462068218  0.9966904106095658
  0.4800194175762433  0.8786933583487232  0.6076128700222841
  0.5194657936136211  0.6212758258485398  0.3958032501907882
  0.3781224043734363  0.8384389151860220  0.8486759364442559
  0.6275636749422944  0.0607381857606813  0.7764230434583471
  0.6191761449480453  0.6657813605880873  0.1708551797250693
  0.8763805832006560  0.9256096916205474  0.2098689937030681
  0.7277632714435502  0.2365308267199815  0.0024196394492259
  0.2735766212339871  0.2792179638685521  0.9954842241414318
  0.2254440097480813  0.1320930372897698  0.6071882069792743
  0.2705758927536689  0.8675720605816519  0.3930178336770280
  0.1263083575636593  0.0905578843868338  0.8477278971649678
  0.3630831509513950  0.3211858128670450  0.7737900687583665
  0.3764254287293785  0.9099779437560527  0.1542834504649905
  0.6262372183311803  0.1828203638404041  0.2297554296655810
  0.9939884559510589  0.4646522198064263  0.8007846850537365
  0.2545931273296190  0.7040770293640007  0.8120334349058855
  0.0011856527755985  0.0502264359039460  0.1922569150459234
  0.2486892042692782  0.2981223386751574  0.1901276788701431
  0.7637712334771244  0.7067742667218977  0.7992355109395125
  1.0011512784949199  0.9591932309129000  0.8115014599149811
  0.7487096790831419  0.2976256276476919  0.1977696460842117
  0.9969591374057780  0.5468081113547072  0.1918446593050479
  0.4983686435232472  0.9511844740811017  0.8073532998318058
  0.7428648562617106  0.2042941134247338  0.8063728219755847
  0.4973624563446957  0.5483082753924011  0.1984938247245720
  0.7478581284843566  0.7944336885846173  0.1911171275193058
  0.2487175446856156  0.1999465995996315  0.8064195188152874
  0.4926919492080618  0.4429042914928774  0.8043557484022910
  0.2509687906309720  0.7997454188529933  0.1934758811143469
  0.5000514923950529  0.0469416723557312  0.1912299235226336
  0.0016998584745202  0.2554519077186740 -0.0002912631691957
  0.2456800037602704  0.5006285882942266 -0.0022423399489132
  0.0044452992662972  0.3470840774884335  0.3682532544895459
  0.2439417493099396  0.5882007793572196  0.3654121831320574
  0.9956151012756438  0.1555634309988425  0.6303481228002241
  0.2562668998902627  0.4153349315629911  0.6291853834335924
  0.7380340681396447  0.4989536488416798  0.0202552334212837
  0.0023339020877904  0.7544569541468066  0.0083575197202711
  0.7549648260017536  0.5993524743685351  0.3769231962091779
  0.9952575906945076  0.8398744531410802  0.3653886823954712
  0.7333087958500026  0.3880942891091282  0.6159287191594697
  0.0237688717095189  0.6790669458479250  0.6235390363933784
  0.5039604676704872  0.7512144675670684  0.0010123522657872
  0.7516954595522114  0.0020556483336016 -0.0003257042333337
  0.5043887443837308  0.8452271708616018  0.3667480294684063
  0.7441955259788765  0.0794604218965851  0.3645384051411494
  0.4945508798162606  0.6541649221438386  0.6312706400025361
  0.7586735462924441  0.9215759341631222  0.6310827755033456
  0.2537288526461848  0.0029734650826699 -0.0043090329271742
  0.4935020297709137  0.2429285642613822 -0.0053505182251586
  0.2540638655704034  0.0960788631208667  0.3653391239853017
  0.4900077333051533  0.3334348591604461  0.3659317380094648
  0.2506909162120800  0.9105080413974478  0.6376128140334223
  0.4940815044969740  0.1525954593666902  0.6347060585521325

             NaN             NaN             NaN
             NaN             NaN             NaN
             NaN             NaN             NaN
             NaN             NaN             NaN
             NaN             NaN             NaN
             NaN             NaN             NaN
             NaN             NaN             NaN
             NaN             NaN             NaN
             NaN             NaN             NaN
             NaN             NaN             NaN
             NaN             NaN             NaN
             NaN             NaN             NaN
             NaN             NaN             NaN
             NaN             NaN             NaN
             NaN             NaN             NaN
             NaN             NaN             NaN
             NaN             NaN             NaN
             NaN             NaN             NaN
             NaN             NaN             NaN
             NaN             NaN             NaN
             NaN             NaN             NaN
             NaN             NaN             NaN
             NaN             NaN             NaN
             NaN             NaN             NaN
             NaN             NaN             NaN
             NaN             NaN             NaN
             NaN             NaN             NaN
             NaN             NaN             NaN
             NaN             NaN             NaN
             NaN             NaN             NaN
             NaN             NaN             NaN
             NaN             NaN             NaN
             NaN             NaN             NaN
             NaN             NaN             NaN
             NaN             NaN             NaN
             NaN             NaN             NaN
             NaN             NaN             NaN
             NaN             NaN             NaN
             NaN             NaN             NaN
             NaN             NaN             NaN
             NaN             NaN             NaN
             NaN             NaN             NaN
             NaN             NaN             NaN
             NaN             NaN             NaN
             NaN             NaN             NaN
             NaN             NaN             NaN
             NaN             NaN             NaN
             NaN             NaN             NaN
             NaN             NaN             NaN
             NaN             NaN             NaN
             NaN             NaN             NaN
             NaN             NaN             NaN
             NaN             NaN             NaN
             NaN             NaN             NaN
             NaN             NaN             NaN
             NaN             NaN             NaN
             NaN             NaN             NaN
             NaN             NaN             NaN
             NaN             NaN             NaN
             NaN             NaN             NaN
             NaN             NaN             NaN
             NaN             NaN             NaN
             NaN             NaN             NaN
             NaN             NaN             NaN
             NaN             NaN             NaN
             NaN             NaN             NaN
             NaN             NaN             NaN
             NaN             NaN             NaN
             NaN             NaN             NaN
             NaN             NaN             NaN
             NaN             NaN             NaN
             NaN             NaN             NaN
             NaN             NaN             NaN
             NaN             NaN             NaN
             NaN             NaN             NaN
             NaN             NaN             NaN
             NaN             NaN             NaN
             NaN             NaN             NaN
             NaN             NaN             NaN
             NaN             NaN             NaN
             NaN             NaN             NaN
             NaN             NaN             NaN
             NaN             NaN             NaN
             NaN             NaN             NaN
             NaN             NaN             NaN
             NaN             NaN             NaN
             NaN             NaN             NaN
             NaN             NaN             NaN
             NaN             NaN             NaN
             NaN             NaN             NaN
             NaN             NaN             NaN
             NaN             NaN             NaN
             NaN             NaN             NaN
             NaN             NaN             NaN
             NaN             NaN             NaN
