# Compound: Fe24Li31O16S24. Old comment: Li4Fe3S3O2 Enum Minimum PATH2 INIT FRAME 02
  1.0000000000
  7.8866538400  -7.9475567000   0.0601846200
  7.3433505600   7.9467915400  -2.8792872600
 -0.0478291200  -0.1071026000  10.5527142700
Fe    Li    O     S
   24    31    16    24
Direct
  0.2632750500   0.6636254367   0.6019727100
  0.2353208667   0.3349375433   0.3990568100
  0.1212185333   0.3251551200   0.8025637667
  0.3824606767   0.5821134967   0.8150962433
  0.8755391767   0.1747104033   0.1972197600
  0.1245428733   0.4207360200   0.1854432000
  0.0142504967  -0.0849411967   0.6017142500
 -0.0152052700   0.5847432700   0.3990152700
  0.8675527000   0.5703465067   0.8027526333
  0.1264091600   0.8298074800   0.8151780533
  0.6268691800   0.4261658933   0.1974721433
  0.8731259200   0.6695612433   0.1858912767
  0.7645542267   0.1654035867   0.6029675900
  0.7348307233   0.8344277867   0.3989566967
  0.6230636300   0.8189662100   0.8026274133
  0.8770171200   0.0834839567   0.8153082200
  0.3761031867   0.6753821067   0.1968881400
  0.6239426733  -0.0794778867   0.1858754633
  0.5178688033   0.4185484433   0.6033374900
  0.4843644200   0.0845640200   0.3996029933
  0.3751831467   0.0752921000   0.8023838933
  0.6316251767   0.3371503933   0.8151602000
  0.1249750300  -0.0757471633   0.1970437167
  0.3750205300   0.1713711000   0.1852834200
  0.4794831533   0.4782500933  -0.0000034533
  0.0202466833   0.5213448600  -0.0046683833
 -0.0240269600   0.3794892267   0.6091909867
  0.0216574900   0.1203941100   0.3927529233
  0.7931380200   0.4209361067   0.8469849433
  0.1230537167   0.5676286333   0.7750534700
  0.1241944967   0.1623681400   0.1549737167
  0.3776174933   0.4331544367   0.2244013300
  0.2256339267   0.7246470033   0.0033575700
  0.7685910467   0.7657319267  -0.0069109867
  0.7230180333   0.6249526200   0.6108171867
  0.7733832233   0.3710065600   0.3920820200
  0.8740132967   0.8164819367   0.7717583433
  0.8745259000   0.4113222833   0.1526613167
  0.1264120133   0.6824831600   0.2248109900
 -0.0264524867  -0.0245534600   0.0030385867
  0.5263426133   0.0232972933  -0.0032705900
  0.4792520600   0.8799309533   0.6078047833
  0.5227729067   0.6211097367   0.3921353967
  0.3756421067   0.8386275633   0.8462886200
  0.6235089100   0.0660967467   0.7740521533
  0.6233729100   0.6619576833   0.1509481433
  0.8757729367  -0.0682049067   0.2235373400
  0.7259213233   0.2284470800   0.0022031033
  0.2755297100   0.2756387267  -0.0041272000
  0.2268371767   0.1296371667   0.6072563900
  0.2724147433   0.8701677467   0.3933550400
  0.1269934200   0.0874975967   0.8454836233
  0.3726486200   0.3156387233   0.7696390400
  0.3734669700  -0.0867811467   0.1550024167
  0.6267345967   0.1837344433   0.2264316900
 -0.0005211733   0.4533194767   0.8054273033
  0.2512489500   0.7020242033   0.8095498733
  0.0004002800   0.0488170333   0.1941122033
  0.2503981633   0.2982164633   0.1921607767
  0.7530443367   0.7025177900   0.8030471867
 -0.0001109600  -0.0470718200   0.8089327600
  0.7508643033   0.2991825600   0.1942354900
 -0.0003047900   0.5476327133   0.1923202833
  0.5005352200  -0.0501899267   0.8067382033
  0.7476395400   0.2012903000   0.8082277767
  0.5011815567   0.5494759567   0.1931246167
  0.7490513400   0.7969407900   0.1917842500
  0.2489997833   0.2018102367   0.8058106700
  0.4970255800   0.4475898933   0.8056739800
  0.2504006533   0.7992115267   0.1944387200
  0.5000162733   0.0486119233   0.1929685133
  0.0013396800   0.2494521633   0.0009797833
  0.2495736800   0.5008175300   0.0019875267
  0.0051400467   0.3466849700   0.3674351433
  0.2456329600   0.5870612467   0.3661924633
 -0.0044501500   0.1528995633   0.6325884500
  0.2536426500   0.4149950367   0.6326752933
  0.7510108100   0.5002242467   0.0030672933
  0.0008631700   0.7513211567   0.0024736900
  0.7550930633   0.5970210333   0.3695124533
 -0.0052993900   0.8365024733   0.3666314233
  0.7457856767   0.4017760633   0.6300134133
  0.0079827967   0.6646339633   0.6327372067
  0.4986845233   0.7525026133   0.0019708700
  0.7502405633   0.0006050467   0.0023942733
  0.5046724733   0.8467011200   0.3673652267
  0.7452730900   0.0863717933   0.3670516933
  0.4939525600   0.6541717433   0.6311774600
  0.7557867967  -0.0854982533   0.6329350167
  0.2501635500   0.0005095567   0.0000446233
  0.4994530133   0.2497077033   0.0021487733
  0.2545755067   0.0965701900   0.3666609133
  0.4954064933   0.3379506267   0.3678646167
  0.2450655033  -0.0961202100   0.6338091467
  0.5051625067   0.1611610033   0.6329387400
