# Compound: Li24O24S24Fe36. Old comment: Fe3Li2O2S2 supercell_10
  1.0000000000
 11.5103684700   0.0000000000   0.0000000000
  0.0000000000  11.3267091600   0.1254894000
  0.0000000000  -0.2968315200  11.3235144400
Li    O     S     Fe
   24    24    24    36
Direct
  0.1051329467   0.2500000000   0.0000000000
  0.4384662800   0.2500000000   0.0000000000
  0.7717996133   0.2500000000   0.0000000000
  0.1051329467   0.7500000000   0.0000000000
  0.4384662800   0.7500000000   0.0000000000
  0.7717996133   0.7500000000   0.0000000000
  0.1051329467   0.2500000000   0.5000000000
  0.4384662800   0.2500000000   0.5000000000
  0.7717996133   0.2500000000   0.5000000000
  0.1051329467   0.7500000000   0.5000000000
  0.4384662800   0.7500000000   0.5000000000
  0.7717996133   0.7500000000   0.5000000000
  0.1051329467   1.0000000000   0.2500000000
  0.4384662800   1.0000000000   0.2500000000
  0.7717996133   1.0000000000   0.2500000000
  0.1051329467   0.5000000000   0.2500000000
  0.4384662800   0.5000000000   0.2500000000
  0.7717996133   0.5000000000   0.2500000000
  0.1051329467   1.0000000000   0.7500000000
  0.4384662800   1.0000000000   0.7500000000
  0.7717996133   1.0000000000   0.7500000000
  0.1051329467   0.5000000000   0.7500000000
  0.4384662800   0.5000000000   0.7500000000
  0.7717996133   0.5000000000   0.7500000000
  0.1061490567   0.1252766250   0.3747233750
  0.4394823900   0.1252766250   0.3747233750
  0.7728157233   0.1252766250   0.3747233750
  0.1061490567   0.6252766250   0.3747233750
  0.4394823900   0.6252766250   0.3747233750
  0.7728157233   0.6252766250   0.3747233750
  0.1061490567   0.1252766250   0.8747233750
  0.4394823900   0.1252766250   0.8747233750
  0.7728157233   0.1252766250   0.8747233750
  0.1061490567   0.6252766250   0.8747233750
  0.4394823900   0.6252766250   0.8747233750
  0.7728157233   0.6252766250   0.8747233750
  0.1061490567   0.3747233750   0.1252766250
  0.4394823900   0.3747233750   0.1252766250
  0.7728157233   0.3747233750   0.1252766250
  0.1061490567   0.8747233750   0.1252766250
  0.4394823900   0.8747233750   0.1252766250
  0.7728157233   0.8747233750   0.1252766250
  0.1061490567   0.3747233750   0.6252766250
  0.4394823900   0.3747233750   0.6252766250
  0.7728157233   0.3747233750   0.6252766250
  0.1061490567   0.8747233750   0.6252766250
  0.4394823900   0.8747233750   0.6252766250
  0.7728157233   0.8747233750   0.6252766250
  0.2736676253   0.1180947150   0.1180947150
  0.6061321767   0.1180947150   0.1180947150
  0.9394655100   0.1180947150   0.1180947150
  0.2727988433   0.6180947150   0.1180947150
  0.6061321767   0.6180947150   0.1180947150
  0.9394655100   0.6180947150   0.1180947150
  0.2727988433   0.1180947150   0.6180947150
  0.6061321767   0.1180947150   0.6180947150
  0.9394655100   0.1180947150   0.6180947150
  0.2727988433   0.6180947150   0.6180947150
  0.6061321767   0.6180947150   0.6180947150
  0.9394655100   0.6180947150   0.6180947150
  0.2727988433   0.3819052850   0.3819052850
  0.6061321767   0.3819052850   0.3819052850
  0.9394655100   0.3819052850   0.3819052850
  0.2727988433   0.8819052850   0.3819052850
  0.6061321767   0.8819052850   0.3819052850
  0.9394655100   0.8819052850   0.3819052850
  0.2727988433   0.3819052850   0.8819052850
  0.6061321767   0.3819052850   0.8819052850
  0.9394655100   0.3819052850   0.8819052850
  0.2727988433   0.8819052850   0.8819052850
  0.6061321767   0.8819052850   0.8819052850
  0.9394655100   0.8819052850   0.8819052850
  0.2728715100   0.3390742700   0.1609257300
  0.6062048433   0.3390742700   0.1609257300
  0.9395381767   0.3390742700   0.1609257300
  0.2728715100   0.8390742700   0.1609257300
  0.6062048433   0.8390742700   0.1609257300
  0.9395381767   0.8390742700   0.1609257300
  0.2728715100   0.3390742700   0.6609257300
  0.6062048433   0.3390742700   0.6609257300
  0.9395381767   0.3390742700   0.6609257300
  0.2728715100   0.8390742700   0.6609257300
  0.6062048433   0.8390742700   0.6609257300
  0.9395381767   0.8390742700   0.6609257300
  0.2728715100   0.1609257300   0.3390742700
  0.6062048433   0.1609257300   0.3390742700
  0.9395381767   0.1609257300   0.3390742700
  0.2728715100   0.6609257300   0.3390742700
  0.6062048433   0.6609257300   0.3390742700
  0.9395381767   0.6609257300   0.3390742700
  0.2728715100   0.1609257300   0.8390742700
  0.6062048433   0.1609257300   0.8390742700
  0.9395381767   0.1609257300   0.8390742700
  0.2728715100   0.6609257300   0.8390742700
  0.6062048433   0.6609257300   0.8390742700
  0.9395381767   0.6609257300   0.8390742700
  0.1073112900   0.0000000000   0.0000000000
  0.4406446233   0.0000000000   0.0000000000
  0.7739779567   0.0000000000   0.0000000000
  0.1073112900   0.5000000000   0.0000000000
  0.4406446233   0.5000000000   0.0000000000
  0.7739779567   0.5000000000   0.0000000000
  0.1073112900   0.0000000000   0.5000000000
  0.4406446233   0.0000000000   0.5000000000
  0.7739779567   0.0000000000   0.5000000000
  0.1073112900   0.5000000000   0.5000000000
  0.4406446233   0.5000000000   0.5000000000
  0.7739779567   0.5000000000   0.5000000000
