# Compound: Fe24Li31O16S24. Old comment:
   1.0000000000000000     
     7.8866538400000001   -7.9475566999999998    0.0601846200000000
     7.3433505600000002    7.9467915400000004   -2.8792872599999999
    -0.0478291200000000   -0.1071026000000000   10.5527142699999992
   Fe   Li   O    S 
    24    31    16    24
Direct
  0.2601987546251339  0.6621073405328564  0.6031035498438486
  0.2352221057912988  0.3356714094039186  0.3990443533389511
  0.1232297791851031  0.3250799707603615  0.8045036005537541
  0.3867200681071155  0.5853358569185024  0.8166645251990855
  0.8743147658193188  0.1737324118563920  0.1978755221254689
  0.1249650058635714  0.4218585037018347  0.1871839810741588
  0.0216009567214768  0.9220936060360295  0.6015321421265988
  0.9815313896514837  0.5842497903164099  0.4009662369475184
  0.8687592296157516  0.5739549805148183  0.8031021506320092
  0.1252990456870057  0.8278541096595270  0.8159690121389187
  0.6280168582709029  0.4275936258555526  0.1988244575240478
  0.8726401185208530  0.6688461004664334  0.1860559548704717
  0.7611852976296098  0.1606122495005808  0.6031159294237706
  0.7345298038510615  0.8320271420894411  0.4001238070061678
  0.6232662715519548  0.8195697670881307  0.8034402023864792
  0.8738132047490046  0.0791368321680198  0.8158171154364817
  0.3769586470879958  0.6764884855133936  0.1987577710161801
  0.6239881287649257  0.9205823665684039  0.1870158337694278
  0.5081075004700212  0.4092893406409241  0.6044521882914584
  0.4828559200106001  0.0824794762052448  0.4000391152393992
  0.3739850706927529  0.0745296717075875  0.8042614048165931
  0.6309194762812110  0.3407330431448249  0.8166126167647952
  0.1245982898053844  0.9241753349595411  0.1978360552966091
  0.3745775259934613  0.1715932921283681  0.1868175784319216
  0.4831563882123136  0.4831387732998353  0.0001466258290432
  0.0232603775954958  0.5244895047103731  0.9985886731802396
  0.9793898460459645  0.3843665906093074  0.6086501728855440
  0.0204663342267297  0.1207563201409367  0.3935723774757937
  0.8767948450556563  0.3365940731786758  0.8455498355490669
  0.1262275026688645  0.5657986176670214  0.7804958001804543
  0.1226776647507834  0.1619832328217877  0.1550646019810702
  0.3780264977574860  0.4327078912380694  0.2214745819190055
  0.2267109460640004  0.7245455471079563  0.0051721698218245
  0.7667095220984127  0.7644513626612806  0.9908554420926294
  0.7008033184726752  0.6074170964181522  0.6259813001086939
  0.7736060928034270  0.3723056942454520  0.3944890655624106
  0.8728237623097191  0.8112240580363544  0.7539224609340117
  0.8749981157764004  0.4109997088004184  0.1549148944672745
  0.1264342607352650  0.6837091268640291  0.2294932527461645
  0.9704108897011824  0.9709004601171075  0.0019407584180628
  0.5249356838069833  0.0230382314744166  0.9986886598940804
  0.4819518713422318  0.8805036713820813  0.6093253033767096
  0.5221825990971315  0.6195003040330185  0.3937140211877549
  0.3753211901570246  0.8384139303536551  0.8461386293504768
  0.6207131559424974  0.0710263777738037  0.7802415984257461
  0.6238158894111789  0.6624204734947836  0.1502294302522315
  0.8756328311105354  0.9311529939709212  0.2257138733082077
  0.7232245189056208  0.2279916773657771  0.0050771468371822
  0.2741755638789806  0.2737652131160480  0.9981757489218471
  0.2303002704211925  0.1334175907088202  0.6087807610383753
  0.2737630343682579  0.8713870961076844  0.3944259766402951
  0.1251589633566993  0.0867301426053455  0.8465878404530530
  0.3720270166789114  0.3175808108660687  0.7806966506431601
  0.3731524204409968  0.9129351566149927  0.1548813647901897
  0.6258858350004415  0.1848058385847086  0.2297214178874453
  0.9984756755242947  0.4519082748567546  0.8085244324073703
  0.2515828219469218  0.7016793825006072  0.8117514031062237
  0.9993756917375592  0.0476897455002423  0.1935491201284050
  0.2494449077971816  0.2975122651843223  0.1920808920293334
  0.7545123252194682  0.7044653695735873  0.8005692019423257
  0.9984814094300742  0.9498874373011656  0.8061127861933793
  0.7503741877036395  0.2995694238189396  0.1963213991937667
  0.9996009324911102  0.5483408866224156  0.1948999564019542
  0.4996841194974169  0.9507452779427492  0.8085752233122061
  0.7485323072285713  0.2044446616391388  0.8116074718911432
  0.5024138947195215  0.5504320991699019  0.1935416050638325
  0.7491230687445181  0.7964067409655928  0.1925463319729436
  0.2485283330376814  0.2006908706685249  0.8080895190296011
  0.4948423926207262  0.4465706862294991  0.8066349942809580
  0.2501484095781071  0.7993677769025922  0.1962957702997169
  0.4994850491161961  0.0488563572512264  0.1944347550376052
  0.9998259833792739  0.2491949826835043  0.0004756165383542
  0.2490919125051432  0.4992197444884084  0.0021734768052601
  0.0048956265975847  0.3457242054184488  0.3667270347931599
  0.2472589111538158  0.5861000629815651  0.3664488282068953
  0.9948853821370410  0.1544864219820636  0.6347210770589433
  0.2546270375631151  0.4125050402218327  0.6333608539052026
  0.7527511867832890  0.4990945524746441  0.0045075524756606
  0.0008463053423142  0.7498203965143978  0.0033813940432051
  0.7543811893569600  0.5977387561029978  0.3746174437930698
  0.9941326407109690  0.8371246531765310  0.3690921676896513
  0.7470966899225328  0.3977754662391000  0.6316208052805999
  0.0128024832499338  0.6585162246263043  0.6333867917344919
  0.4983085426538455  0.7539091038232661  0.0040768949875883
  0.7490449244686362  0.0014609957962130  0.0027779769209264
  0.5047007736569817  0.8469021499766036  0.3686465993795058
  0.7453609664916101  0.0860573461404681  0.3667322203961747
  0.4900309298142219  0.6552772604199375  0.6319933080125636
  0.7503959338538301  0.9208181982959791  0.6333775044566187
  0.2489338485280191  0.0000321744007601  0.0007644735003878
  0.4986446097672841  0.2499161745870438  0.0023645365346386
  0.2536866964739796  0.0964930091452949  0.3674394278759734
  0.4940471168528897  0.3389289140767784  0.3679902364315834
  0.2456244900401475  0.9037799112375633  0.6346690296319047
  0.5039762124150906  0.1634014622970806  0.6333758345583413

             NaN             NaN             NaN
             NaN             NaN             NaN
             NaN             NaN             NaN
             NaN             NaN             NaN
             NaN             NaN             NaN
             NaN             NaN             NaN
             NaN             NaN             NaN
             NaN             NaN             NaN
             NaN             NaN             NaN
             NaN             NaN             NaN
             NaN             NaN             NaN
             NaN             NaN             NaN
             NaN             NaN             NaN
             NaN             NaN             NaN
             NaN             NaN             NaN
             NaN             NaN             NaN
             NaN             NaN             NaN
             NaN             NaN             NaN
             NaN             NaN             NaN
             NaN             NaN             NaN
             NaN             NaN             NaN
             NaN             NaN             NaN
             NaN             NaN             NaN
             NaN             NaN             NaN
             NaN             NaN             NaN
             NaN             NaN             NaN
             NaN             NaN             NaN
             NaN             NaN             NaN
             NaN             NaN             NaN
             NaN             NaN             NaN
             NaN             NaN             NaN
             NaN             NaN             NaN
             NaN             NaN             NaN
             NaN             NaN             NaN
             NaN             NaN             NaN
             NaN             NaN             NaN
             NaN             NaN             NaN
             NaN             NaN             NaN
             NaN             NaN             NaN
             NaN             NaN             NaN
             NaN             NaN             NaN
             NaN             NaN             NaN
             NaN             NaN             NaN
             NaN             NaN             NaN
             NaN             NaN             NaN
             NaN             NaN             NaN
             NaN             NaN             NaN
             NaN             NaN             NaN
             NaN             NaN             NaN
             NaN             NaN             NaN
             NaN             NaN             NaN
             NaN             NaN             NaN
             NaN             NaN             NaN
             NaN             NaN             NaN
             NaN             NaN             NaN
             NaN             NaN             NaN
             NaN             NaN             NaN
             NaN             NaN             NaN
             NaN             NaN             NaN
             NaN             NaN             NaN
             NaN             NaN             NaN
             NaN             NaN             NaN
             NaN             NaN             NaN
             NaN             NaN             NaN
             NaN             NaN             NaN
             NaN             NaN             NaN
             NaN             NaN             NaN
             NaN             NaN             NaN
             NaN             NaN             NaN
             NaN             NaN             NaN
             NaN             NaN             NaN
             NaN             NaN             NaN
             NaN             NaN             NaN
             NaN             NaN             NaN
             NaN             NaN             NaN
             NaN             NaN             NaN
             NaN             NaN             NaN
             NaN             NaN             NaN
             NaN             NaN             NaN
             NaN             NaN             NaN
             NaN             NaN             NaN
             NaN             NaN             NaN
             NaN             NaN             NaN
             NaN             NaN             NaN
             NaN             NaN             NaN
             NaN             NaN             NaN
             NaN             NaN             NaN
             NaN             NaN             NaN
             NaN             NaN             NaN
             NaN             NaN             NaN
             NaN             NaN             NaN
             NaN             NaN             NaN
             NaN             NaN             NaN
             NaN             NaN             NaN
             NaN             NaN             NaN
