# Compound: Fe24Li31O16S24. Old comment: Fe24Li31O16S24
  1.0000000000
  7.8866538400  -7.9475567000   0.0601846200
  7.3433505600   7.9467915400  -2.8792872600
 -0.0478291200  -0.1071026000  10.5527142700
Fe    Li    O     S
   24    31    16    24
Direct
  0.2602282087   0.6617369236   0.6031382768
  0.2348054129   0.3352676473   0.3991018691
  0.1233284997   0.3250586540   0.8042720985
  0.3871013999   0.5856738759   0.8168417011
  0.8743690256   0.1737814471   0.1979623874
  0.1251594485   0.4220705079   0.1873329147
  0.0211850658   0.9218044619   0.6016889681
  0.9818195162   0.5845330278   0.4009887722
  0.8687571129   0.5738788142   0.8029778851
  0.1253026561   0.8278758191   0.8160721739
  0.6281711527   0.4277001249   0.1987121438
  0.8726916664   0.6688656593   0.1860117882
  0.7608701087   0.1605057639   0.6031109233
  0.7344178965   0.8319514626   0.3999958156
  0.6231898740   0.8194534867   0.8032844584
  0.8738079090   0.0791806295   0.8159385370
  0.3771153131   0.6766462463   0.1987158732
  0.6240630330   0.9206740046   0.1870330728
  0.5075133707   0.4088818194   0.6044067646
  0.4826607279   0.0823442448   0.4000999827
  0.3740464497   0.0746294056   0.8041410818
  0.6311371387   0.3410606519   0.8166853592
  0.1247002504   0.9243232283   0.1979215276
  0.3747706096   0.1718725542   0.1869776678
  0.4822738337   0.4822594672   1.0002135138
  0.0231809929   0.5242400901   0.9985337344
  0.9789628485   0.3843215083   0.6085941594
  0.0204166252   0.1209473341   0.3936123247
  0.8770409571   0.3363514486   0.8452320517
  0.1263900537   0.5658272262   0.7806961511
  0.1226866229   0.1619761589   0.1548115107
  0.3780909126   0.4330676427   0.2222206290
  0.2268166980   0.7246722622   0.0051860348
  0.7669257611   0.7646155686   0.9906281430
  0.7011758154   0.6074855791   0.6251204720
  0.7733019144   0.3724433084   0.3944934664
  0.8727545778   0.8112298508   0.7540578179
  0.8752408305   0.4109833816   0.1550756745
  0.1264684114   0.6838089969   0.2293008093
  0.9701473912   0.9706786734   0.0020564580
  0.5247482694   0.0229108644   0.9986627397
  0.4817298297   0.8801937328   0.6093143013
  0.5228425126   0.6199043107   0.3935334280
  0.3751164648   0.8386774582   0.8459521133
  0.6207285094   0.0711387956   0.7804522931
  0.6238463467   0.6621522719   0.1489895797
  0.8757022645   0.9311325835   0.2259188822
  0.7233851537   0.2281221368   0.0051217096
  0.2741579550   0.2738177706   0.9982472420
  0.2291597228   0.1320419366   0.6088560598
  0.2736357057   0.8708472401   0.3944864962
  0.1250897299   0.0867639534   0.8470127370
  0.3719395024   0.3175143071   0.7806486030
  0.3731239363   0.9131494423   0.1549279969
  0.6259803313   0.1848458872   0.2298690051
  0.9986046147   0.4518478841   0.8083322672
  0.2516748408   0.7017583235   0.8118431794
 -0.0005954012   0.0477050449   0.1935585058
  0.2494841330   0.2976279361   0.1922783250
  0.7544678578   0.7043212847   0.8002936193
  0.9983859153   0.9498780132   0.8063735675
  0.7504645395   0.2996143820   0.1963305875
 -0.0002991784   0.5484081679   0.1949405603
  0.4996572976   0.9507867064   0.8083825555
  0.7485676259   0.2044835610   0.8116582514
  0.5025410297   0.5505293671   0.1933539188
  0.7490846707   0.7963215416   0.1924224796
  0.2484533113   0.2006179739   0.8080039902
  0.4948017938   0.4465951022   0.8068013198
  0.2502332456   0.7994771817   0.1962400691
  0.4994935090   0.0489500235   0.1945882495
 -0.0001107209   0.2492774610   1.0005390170
  0.2490575125   0.4991992614   0.0021353120
  0.0049192874   0.3458394970   0.3668301352
  0.2472624909   0.5864992826   0.3664278751
  0.9948404089   0.1543969876   0.6347686075
  0.2549465671   0.4128194939   0.6332285460
  0.7530823846   0.4990200136   0.0044692536
  0.0008440285   0.7497300510   0.0033755570
  0.7545500339   0.5977761161   0.3746205149
  0.9942021009   0.8370768875   0.3691126616
  0.7471353987   0.3977344504   0.6315537668
  0.0128808633   0.6586551978   0.6334804394
  0.4983412651   0.7542796981   0.0039903964
  0.7489482011   0.0014190550   0.0027025905
  0.5047063341   0.8470049543   0.3687409285
  0.7455260831   0.0860196067   0.3666709147
  0.4900781536   0.6552341426   0.6317803195
  0.7505459691   0.9208494170   0.6332913558
  0.2489988260   0.0001569405   0.0008536356
  0.4986039332   0.2498296572   0.0022853835
  0.2536678391   0.0965270423   0.3676647493
  0.4943460202   0.3390850360   0.3678539110
  0.2454885990   0.9037738407   0.6348010266
  0.5042385737   0.1636562096   0.6333120168
