# Compound: Fe32Li31O16S32. Old comment:
   1.0000000000000000     
     7.6911861600000000   -7.6885056399999998    0.0000000100000000
     7.6884112800000004    7.6911136200000003   -0.0126780500000000
    -3.8335882400000001   -3.8349345399999999   12.8627506399999998
   Fe   Li   O    S 
    32    31    16    32
Direct
  0.9739534287806252  0.0799829095369071  0.1595658955761495
  0.2247096332506671  0.3314463708450158  0.1590093298838432
  0.7247667164387260  0.3296315786074779  0.1579533545495285
  0.9747877363334031  0.5793541742520506  0.1586033645863345
  0.9738067408536458  0.4228198338929889  0.3413441958779163
  0.2339132848827364  0.6797445069806313  0.3465707300365516
  0.7213496825644805  0.6697289546834151  0.3414361513940563
  0.9729775603268188  0.9189785626153089  0.3416197018013994
  0.9729898053678624  0.0773508138020779  0.6583915145390243
  0.2254279765482258  0.3303660281739557  0.6583640224584261
  0.7224947404417574  0.3297396512428055  0.6584736002155760
  0.9738392176559472  0.5814489301788927  0.6586458652184227
  0.9739513879636067  0.4203986084597442  0.8404353892493905
  0.2246734875600853  0.6724506556912935  0.8409852093700193
  0.7247424305417770  0.6715881876153759  0.8420414652016798
  0.9747812946362077  0.9207007457425126  0.8413999232631887
  0.4749527785353395  0.5761780999667155  0.1549541797490406
  0.7226881344719698  0.8288126422363992  0.1592913107498747
  0.2226358372531377  0.8289057633407381  0.1583364810465428
  0.4738981163920256  0.0801037929072721  0.1606021568249028
  0.4671695841596459  0.9128994329859839  0.3467442512459903
  0.7225025394986424  0.1712529290596183  0.3415184313145754
  0.2254110827336624  0.1719545937764667  0.3416245958575770
  0.4750400206023380  0.4239327163340454  0.3415135434331991
  0.4750412779996940  0.5823671099632151  0.6584819821570100
  0.7213787438122468  0.8283092587988565  0.6585786439366292
  0.2339417497074421  0.8331550195835451  0.6534253582186527
  0.4671742312144173  0.0661675156640543  0.6532730209397464
  0.4749514395879056  0.9212130692055264  0.8450381793273908
  0.7226748219365332  0.1694910147609716  0.8407121679757746
  0.2226197739245739  0.1705616994390500  0.8416652374919459
  0.4738839727359289  0.4195098432257907  0.8393970918123785
  0.0804107172530850  0.1438704095881719  0.0009692282055084
  0.8671345592848135  0.8577891888193174  0.0009299706239415
  0.8671530658781832  0.3568410438917887  0.9990609181922516
  0.0804181189364842  0.6428917454279682  0.9990298923251912
  0.1134584430539590  0.3909526974334809  0.4999750657675869
  0.3166039172867671  0.5994567881869484  0.4999910892679851
  0.8204552057513965  0.6052716192645684  0.5000016675240379
  0.6182397995550202  0.4031910163677003  0.4999882569174019
  0.0814356955095820  0.1427219287504613  0.5000097916346903
  0.8675619261008541  0.8552387960864098  0.4999996931331013
  0.8661821473961805  0.3581556357267378  0.5000054128575609
  0.0706520674677805  0.6487598266209706  0.4999974926413399
  0.1168103079461781  0.3930661067431763  0.0000038279336911
  0.3287711406008593  0.6047937518583716 -0.0013500984725613
  0.8311263037946885  0.6075832348609235  0.0001273687037948
  0.6183301414669888  0.3935204671605549 -0.0022028015297918
  0.5798527861333280  0.6440539975713513 -0.0012523133451360
  0.3677939794020653  0.3540841280627557  0.9971883876327416
  0.3677972959405594  0.8568844562473674  0.0028080824444415
  0.5798682120164275  0.1453025766219627  1.0012762677362417
  0.6249985661305719  0.9073786819195054  0.5000116608169234
  0.8336376433741967  0.1105812644443959  0.5000021638140174
  0.3281445704059619  0.0980736313429513  0.5000092688335015
  0.1271117809614210  0.8965895371297515  0.5000025251797400
  0.3681753783582143  0.3572822600055310  0.4999807662912608
  0.5528912005943346  0.6713060534270708  0.5000058902551201
  0.5761089948219449  0.1526957819238110  0.4999933634932029
  0.6183361455230445  0.8957034557977189  1.0021786891035391
  0.8311274956478569  0.1074694418953591  0.9998934662332741
  0.3287795845554737  0.1061315988026027  1.0013406134324867
  0.1168071645213877  0.8930697007525944  1.0000130024380238
  0.2252415896918879  0.2479661048152554  0.4999958078350742
  0.4733305479384607  0.4994372544284114  0.9980056033009099
  0.9739955276365898  0.5000521659042461 -0.0003218688598166
  0.2160811482362171  0.7438161330800546  0.4999984378733777
  0.2240322808519158  0.2498915217170402  0.0001541087713831
  0.4707336105081819  0.5085860018002054  0.4999980260307880
  0.9702188162198981  0.5017284469643638  0.4999958023082238
  0.2240290835687219  0.7497407190849297  0.9998457354324807
  0.7158693635048137  0.7532429980724735  0.5000055578117554
  0.9739961467323566  1.0003747447891453  1.0003249733132615
  0.4733341586439587  1.0014212714765671  0.0019915906124929
  0.7227192418012898  0.2538461684822331  0.4999968358097753
  0.7236098161833765  0.7510496819652931  0.0005904570171717
  0.9764997732023447  0.9985149394624990  0.5000044685066148
  0.4803696640814007  0.0076700262466521  0.5000072430256444
  0.7236122349847216  0.2504680353819266  0.9994097218124283
  0.9732168242632017  0.3257067630369363  0.1513960329764484
  0.2221715377029047  0.5773071852261774  0.1543425003868273
  0.7231722831805381  0.5762936532754493  0.1510419078059634
  0.9744336161636932  0.8262615201170798  0.1518009702354028
  0.9736489280225360  0.1749929898269631  0.3490718246630368
  0.2210461817576968  0.4198037956850371  0.3472202594208380
  0.7227843076978362  0.4245680467556844  0.3463282657500450
  0.9673409331113128  0.6733780850221140  0.3470190970564443
  0.9736501738717116  0.3259252123597065  0.6509289649413490
  0.2210457314208661  0.5725835155914808  0.6527703966423180
  0.7227809785654484  0.5782307089648685  0.6536683843194613
  0.9673406582650967  0.8263523388320743  0.6529832271164019
  0.9744386180607784  0.1744664461497348  0.8482036437261140
  0.2232592890257963  0.4232382774932718  0.8482120335863419
  0.7243887082530754  0.4255551857489415  0.8481200899619636
  0.9732197114467849  0.6743117413669604  0.8486000465102703
  0.4748160887536792  0.8291810401595530  0.1548968954063702
  0.7243854049473490  0.0774268461141767  0.1518750783372544
  0.2232596841879557  0.0750199635250009  0.1517829941326530
  0.4728484415195044  0.3265291144758364  0.1510405281318247
  0.4715586701535489  0.6727133974273750  0.3408481302493200
  0.7283359199216702  0.9266652087984165  0.3474714673818023
  0.2230146142661139  0.9245316292850370  0.3466938138688241
  0.4742079844223271  0.1808261946203359  0.3479744669060723
  0.4715647590247213  0.8318680346296504  0.6591539502537270
  0.7283392511962541  0.0792033674634966  0.6525362080777811
  0.2230149767126231  0.0778362499360592  0.6533115419364318
  0.4742020265182274  0.3328483401632523  0.6520205871244867
  0.4728472984727407  0.6754837454135488  0.8489574392150938
  0.7231800987776091  0.9252587026405256  0.8489661687322475
  0.2221727303817308  0.9229584423311947  0.8456549895489923
  0.4748210981730930  0.1742925285501939  0.8451135642353542

             NaN             NaN             NaN
             NaN             NaN             NaN
             NaN             NaN             NaN
             NaN             NaN             NaN
             NaN             NaN             NaN
             NaN             NaN             NaN
             NaN             NaN             NaN
             NaN             NaN             NaN
             NaN             NaN             NaN
             NaN             NaN             NaN
             NaN             NaN             NaN
             NaN             NaN             NaN
             NaN             NaN             NaN
             NaN             NaN             NaN
             NaN             NaN             NaN
             NaN             NaN             NaN
             NaN             NaN             NaN
             NaN             NaN             NaN
             NaN             NaN             NaN
             NaN             NaN             NaN
             NaN             NaN             NaN
             NaN             NaN             NaN
             NaN             NaN             NaN
             NaN             NaN             NaN
             NaN             NaN             NaN
             NaN             NaN             NaN
             NaN             NaN             NaN
             NaN             NaN             NaN
             NaN             NaN             NaN
             NaN             NaN             NaN
             NaN             NaN             NaN
             NaN             NaN             NaN
             NaN             NaN             NaN
             NaN             NaN             NaN
             NaN             NaN             NaN
             NaN             NaN             NaN
             NaN             NaN             NaN
             NaN             NaN             NaN
             NaN             NaN             NaN
             NaN             NaN             NaN
             NaN             NaN             NaN
             NaN             NaN             NaN
             NaN             NaN             NaN
             NaN             NaN             NaN
             NaN             NaN             NaN
             NaN             NaN             NaN
             NaN             NaN             NaN
             NaN             NaN             NaN
             NaN             NaN             NaN
             NaN             NaN             NaN
             NaN             NaN             NaN
             NaN             NaN             NaN
             NaN             NaN             NaN
             NaN             NaN             NaN
             NaN             NaN             NaN
             NaN             NaN             NaN
             NaN             NaN             NaN
             NaN             NaN             NaN
             NaN             NaN             NaN
             NaN             NaN             NaN
             NaN             NaN             NaN
             NaN             NaN             NaN
             NaN             NaN             NaN
             NaN             NaN             NaN
             NaN             NaN             NaN
             NaN             NaN             NaN
             NaN             NaN             NaN
             NaN             NaN             NaN
             NaN             NaN             NaN
             NaN             NaN             NaN
             NaN             NaN             NaN
             NaN             NaN             NaN
             NaN             NaN             NaN
             NaN             NaN             NaN
             NaN             NaN             NaN
             NaN             NaN             NaN
             NaN             NaN             NaN
             NaN             NaN             NaN
             NaN             NaN             NaN
             NaN             NaN             NaN
             NaN             NaN             NaN
             NaN             NaN             NaN
             NaN             NaN             NaN
             NaN             NaN             NaN
             NaN             NaN             NaN
             NaN             NaN             NaN
             NaN             NaN             NaN
             NaN             NaN             NaN
             NaN             NaN             NaN
             NaN             NaN             NaN
             NaN             NaN             NaN
             NaN             NaN             NaN
             NaN             NaN             NaN
             NaN             NaN             NaN
             NaN             NaN             NaN
             NaN             NaN             NaN
             NaN             NaN             NaN
             NaN             NaN             NaN
             NaN             NaN             NaN
             NaN             NaN             NaN
             NaN             NaN             NaN
             NaN             NaN             NaN
             NaN             NaN             NaN
             NaN             NaN             NaN
             NaN             NaN             NaN
             NaN             NaN             NaN
             NaN             NaN             NaN
             NaN             NaN             NaN
             NaN             NaN             NaN
             NaN             NaN             NaN
             NaN             NaN             NaN
