# Compound: Fe32Li31O16S32. Old comment: Fe32Li31O16S32
  1.0000000000
  7.6911861600  -7.6885056400   0.0000000100
  7.6884112800   7.6911136200  -0.0126780500
 -3.8335882400  -3.8349345400  12.8627506400
Fe    Li    O     S
   32    31    16    32
Direct
  0.9741845424   0.0792544688   0.1586823798
  0.2245328998   0.3301417543   0.1595109966
  0.7241125642   0.3287982964   0.1585898347
  0.9749383648   0.5795415130   0.1593656256
  0.9746506326   0.4210392353   0.3413211509
  0.2319396348   0.6798836788   0.3463010330
  0.7238908871   0.6690458617   0.3423006583
  0.9731134543   0.9196300967   0.3414078189
  0.9731067420   0.0782322318   0.6586032862
  0.2253898113   0.3303851122   0.6586968747
  0.7234493182   0.3287873540   0.6587063505
  0.9746603651   0.5797557007   0.6586772368
  0.9741920279   0.4205408014   0.8413087257
  0.2245244072   0.6706231607   0.8404851796
  0.7241243025   0.6701945387   0.8414052645
  0.9749454095   0.9201459458   0.8406332793
  0.4749777300   0.5776678616   0.1580406614
  0.7233323210   0.8298444814   0.1595329945
  0.2234834938   0.8296470179   0.1582214765
  0.4742054171   0.0790101002   0.1591247558
  0.4672325483   0.9153992729   0.3462395240
  0.7234505777   0.1700790336   0.3412951393
  0.2253762125   0.1716545650   0.3412946828
  0.4760533618   0.4210499197   0.3422298762
  0.4760506824   0.5788459161   0.6577760512
  0.7238921216   0.8267709685   0.6577031764
  0.2319545226   0.8335667840   0.6537111914
  0.4672341359   0.0691618487   0.6537647990
  0.4750112224   0.9196044910   0.8419661691
  0.7233262122   0.1702935326   0.8404679634
  0.2234738229   0.1713918284   0.8417684826
  0.4742202244   0.4198658522   0.8408736013
  0.0809671844   0.1435911616   0.0004289354
  0.8669719535   0.8571606670   0.0000914873
  0.8669739206   0.3570611564   0.9998997366
  0.0809694761   0.6431580300   0.9995675010
  0.1177808007   0.3933241382   0.5000012757
  0.3328091698   0.6134613490   0.5000001852
  0.8275375897   0.6055960108   0.4999981601
  0.6184275664   0.3966272541   0.5000095212
  0.0800491753   0.1442726980   0.5000111644
  0.8667649951   0.8572449365   0.5000035562
  0.8675814058   0.3564352727   0.5000034166
  0.0790622209   0.6442039046   0.5000013216
  0.1173447575   0.3935397431   0.0007571788
  0.3305394061   0.6064515832   0.0003955957
  0.8313123083   0.6075086783   0.0006834946
  0.6177020315   0.3935545356   0.0000393494
  0.5805191799   0.6434703941   0.0005119453
  0.3678596435   0.3559721473   0.9995312713
  0.3678589978   0.8564382733   0.0004519593
  0.5805234856   0.1429485597   0.9994880973
  0.6103232667   0.8913355249   0.4999998149
  0.8307313765   0.1065558230   0.4999951077
  0.3279146103   0.1002072010   0.5000024598
  0.1241352406   0.8962606150   0.5000108164
  0.3670089965   0.3571829784   0.4999970850
  0.5449617020   0.6789817464   0.5000073725
  0.5797008032   0.1451982363   0.5000004476
  0.6177030350   0.8935177649   0.9999727224
  0.8313126418   0.1068157205   0.9993095358
  0.3305381538   0.1060413599   0.9995858552
  0.1173407343   0.8927786439   0.9992414751
  0.2246085799   0.2487978922   0.5000018734
  0.4739250442   0.4997860726   0.9999027044
  0.9744090027   0.5002261164   0.0004232855
  0.2190440108   0.7471448149   0.5000094140
  0.2244298952   0.2503357329   0.0004307119
  0.4735470760   0.5036966532   0.5000064106
  0.9737368982   0.4998174107   0.5000028917
  0.2244302893   0.7499030063   0.9995556821
  0.7202617226   0.7505199219   0.5000054449
  0.9744095538   0.9997957909   0.9995636365
  0.4739264509   0.9998785261   0.0000901192
  0.7241420050   0.2503857394   0.5000045199
  0.7237338277   0.7501743902   0.0005134934
  0.9753733635   0.9996176074   0.5000083088
  0.4769136074   0.0051981690   0.5000060562
  0.7237334042   0.2496535766   0.9994760574
  0.9741452891   0.3254593222   0.1516096852
  0.2241074621   0.5777111814   0.1547103476
  0.7236772433   0.5759676271   0.1523526213
  0.9742018503   0.8260094712   0.1517515341
  0.9741352725   0.1739369886   0.3479666472
  0.2242341452   0.4225422321   0.3480743873
  0.7249627634   0.4224530863   0.3467280709
  0.9710653009   0.6731948788   0.3476456683
  0.9741376733   0.3259685980   0.6520342485
  0.2242288895   0.5744811078   0.6519267133
  0.7249727415   0.5757320400   0.6532732310
  0.9710655432   0.8255485237   0.6523609811
  0.9742018683   0.1742454183   0.8482452172
  0.2240617227   0.4243305275   0.8486370043
  0.7245223316   0.4240898770   0.8485236059
  0.9741489652   0.6738618845   0.8483829410
  0.4739440196   0.8272461431   0.1545656190
  0.7245211950   0.0755638643   0.1514702877
  0.2240641568   0.0756816907   0.1513511232
  0.4742788224   0.3262388963   0.1519191535
  0.4729553484   0.6732958315   0.3443295471
  0.7256878518   0.9239645694   0.3481695365
  0.2222482575   0.9251285790   0.3463553208
  0.4747499316   0.1766197198   0.3474020196
  0.4729596754   0.8289666530   0.6556785953
  0.7256917220   0.0757887387   0.6518342751
  0.2222467867   0.0787671302   0.6536482521
  0.4747497456   0.3292233963   0.6525973409
  0.4742777718   0.6743323786   0.8480789884
  0.7236823295   0.9236168655   0.8476455650
  0.2241021663   0.9229953852   0.8452856715
  0.4739429066   0.1726671606   0.8454312896
