# Compound: Li2O2S3Fe4. Old comment: Fe4
   1.00000000000000     
     3.8908624999999999   -0.0019891900000000    0.0241006900000000
    -0.0147980200000000    3.8908348699999999    0.0241006900000000
    -2.0131963399999999   -2.0198347900000000   10.0603136699999993
   Li   O    S    Fe
     2     2     3     4
Direct
  0.6105963600000024  0.7272634300000007  0.8349175500000001
  0.2727365699999993  0.3894036399999976  0.1650824499999999
  0.7907487000000017  0.4064200999999983  0.1967910400000008
  0.5935799000000017  0.2092512999999983  0.8032089599999992
  0.0092969600000004  0.6154037499999987  0.6289928099999997
  0.3845962500000013  0.9907030399999996  0.3710071900000003
  0.1922278799999972  0.8077721200000028  0.0000000000000000
  0.8563871100000000  0.5191733999999997  0.3929101800000012
  0.4808266000000003  0.1436128900000000  0.6070898199999988
  0.1135329900000031  0.2289253100000010  0.8439181199999979
  0.7710746899999990  0.8864670099999969  0.1560818800000021
 
  0.00000000E+00  0.00000000E+00  0.00000000E+00
  0.00000000E+00  0.00000000E+00  0.00000000E+00
  0.00000000E+00  0.00000000E+00  0.00000000E+00
  0.00000000E+00  0.00000000E+00  0.00000000E+00
  0.00000000E+00  0.00000000E+00  0.00000000E+00
  0.00000000E+00  0.00000000E+00  0.00000000E+00
  0.00000000E+00  0.00000000E+00  0.00000000E+00
  0.00000000E+00  0.00000000E+00  0.00000000E+00
  0.00000000E+00  0.00000000E+00  0.00000000E+00
  0.00000000E+00  0.00000000E+00  0.00000000E+00
  0.00000000E+00  0.00000000E+00  0.00000000E+00
