# Compound: Li2O2S3Fe4. Old comment: Fe4Li2O2S3
  1.0000000000
  3.8908625000  -0.0019891900   0.0241006900
 -0.0147980200   3.8908348700   0.0241006900
 -2.0131963400  -2.0198347900  10.0603136700
Li    O     S     Fe
    2     2     3     4
Direct
  0.6105963600   0.7272634300   0.8349175500
  0.2727365700   0.3894036400   0.1650824500
  0.7907487000   0.4064201000   0.1967910400
  0.5935799000   0.2092513000   0.8032089600
  0.0092969600   0.6154037500   0.6289928100
  0.3845962500   0.9907030400   0.3710071900
  0.1922278800   0.8077721200   0.0000000000
  0.8563871100   0.5191734000   0.3929101800
  0.4808266000   0.1436128900   0.6070898200
  0.1135329900   0.2289253100   0.8439181200
  0.7710746900   0.8864670100   0.1560818800
