# Compound: Fe24Li31O16S24. Old comment:
   1.0000000000000000     
     7.8866538400000001   -7.9475566999999998    0.0601846200000000
     7.3433505600000002    7.9467915400000004   -2.8792872599999999
    -0.0478291200000000   -0.1071026000000000   10.5527142699999992
   Fe   Li   O    S 
    24    31    16    24
Direct
  0.2633655430027175  0.6667767047171922  0.6025331885965051
  0.2271086564171098  0.3318193716568720  0.3998623878058046
  0.1179870060488210  0.3245933243041533  0.7883207183921741
  0.3722920993004745  0.5785605201388837  0.8169061380703080
  0.8747428663611083  0.1767157367537481  0.1982486040529811
  0.1239789460406650  0.4207103800731362  0.1836301434995547
  0.0188997608238337  0.9191448582963998  0.6038860351962798
  1.0064630029198076  0.6120896721467328  0.3909424646661325
  0.8671889132415931  0.5725994792373374  0.8078464186762251
  0.1237339337124128  0.8298447282158852  0.8193680281449132
  0.6290574116964465  0.4287205098101518  0.2006289869536237
  0.8713779010974136  0.6670914574964066  0.1788977412780244
  0.7650281545389235  0.1616988586391014  0.6035834954192361
  0.7336354560385941  0.8224323280707014  0.4014781606971820
  0.6261099880488877  0.8161521709038017  0.7896280669426581
  0.8739492209975517  0.0770638077832607  0.8162832325607934
  0.3773902363457583  0.6766930883355596  0.2001565495699939
  0.6229867698306755  0.9207579698409027  0.1906321214728669
  0.5130242356837382  0.4223889622358391  0.6036914153003297
  0.4892448331106596  0.0920807128377504  0.3994000675975320
  0.3728255288521543  0.0755767619632882  0.8060043295838873
  0.6234375694916982  0.3281695937370682  0.8147417585935510
  0.1253954065091470  0.9278119992651011  0.2003416747316210
  0.3724539106095542  0.1700637634797444  0.1838646185172895
  0.4773342268730544  0.4756496300971588  0.0068203800343477
  0.0309063049083402  0.5242503019484520  0.9964993705790688
  0.8968278958169890  0.4796803889492294  0.5345220617515672
  0.0243881279918100  0.1348006799047665  0.3982058080392009
  0.8775764838714165  0.3351463885144365  0.8360059715909184
  0.1171955831164792  0.5620448301649347  0.7628705715851291
  0.1219439497426196  0.1636574590066254  0.1538621747142071
  0.3772805377526713  0.4356630238224081  0.2335997202787234
  0.2302991563872940  0.7304313111634261  0.0039198836544730
  0.7786365913568127  0.7881793414189439  1.0013895101280341
  0.7215582247233885  0.3250047707672273  0.3928248326456721
  0.6245270974303565  0.5894604404819159  0.8444437040714711
  0.8690420641593898  0.8049401365615684  0.7545586334621084
  0.8751861971822084  0.4193373026262734  0.1814684614625350
  0.1288749070191433  0.6838933667515548  0.2085649679549323
  0.9718218616732480  0.9768034396880957  0.0065230828110274
  0.5214752455513809  0.0109690231210239  0.9935309675135632
  0.4785741180238919  0.8888532052657373  0.6082746845578331
  0.5361736290831820  0.6250704648260639  0.3998091975930148
  0.3766026741482162  0.8328319508565085  0.8375190673329084
  0.6222098215195293  0.0681720452001959  0.7830709989729060
  0.6225317937530936  0.6633264432385552  0.1532690835378810
  0.8763219179053892  0.9370317033441429  0.2373948537019148
  0.7362488934047349  0.2403252367655015  0.0042405525592666
  0.2729595599807744  0.2783368078276919  0.9948367006732427
  0.2287892660147941  0.1258902804446533  0.6084184174810596
  0.2689635837496590  0.8665262142742075  0.3938790453494728
  0.1227856033582291  0.0902083979715277  0.8457689547757037
  0.3713963376444815  0.3158100043858765  0.7711379830264137
  0.3732380805574910  0.9138069524007048  0.1569691911901577
  0.6230928821929111  0.1730008125794144  0.1944237435406055
  0.9968023887263411  0.4581964291177130  0.8162331799411009
  0.2461688931025654  0.7010307374714521  0.8103706984431207
 -0.0006165866128399  0.0518730858471518  0.1996408982649518
  0.2503190376503529  0.2995745637840455  0.1935490688303991
  0.7525057765463855  0.7052157506535190  0.8216022972084766
  0.9965580277446288  0.9486579397780208  0.8100694534267889
  0.7476334398942411  0.2989342846174323  0.1972873414092847
  0.0030088460943101  0.5503563096091827  0.1853549732727784
  0.4998695566060998  0.9478970806283750  0.8057217179043763
  0.7494460891528715  0.2016596716574720  0.8098974330529372
  0.5022261296323547  0.5501369202634235  0.2010754360514478
  0.7503023256463025  0.7993042132554414  0.1949496200428653
  0.2465755695282536  0.2034746602943656  0.8060438994910537
  0.4975960198415447  0.4519156001716828  0.8103716089960289
  0.2525821504755927  0.8028282488703498  0.1957946478013080
  0.4973811295011146  0.0460354675056513  0.1907183700045169
  0.9963801609404553  0.2484345996283547  1.0021980482635247
  0.2539723260718258  0.5048576854096637  0.0065042211140617
  0.0061008125968292  0.3499736081228857  0.3615263933421325
  0.2423242128248795  0.5923026317970704  0.3660050016183143
  0.9935779817754964  0.1487195419244726  0.6342253235444488
  0.2560952964598803  0.4138070287275922  0.6322036383349547
  0.7409999644842611  0.4932048831008110  0.0075557728959348
  0.0038141077475210  0.7564475713068805  0.0101902480585203
  0.7656798015876793  0.5951727508282529  0.3673422749506393
  0.9985411768337683  0.8364892483251606  0.3686217647460814
  0.7381581757600104  0.3982241217175709  0.6353163645270999
  0.0145876749306866  0.6682330979962087  0.6261256948636316
  0.4965923179410633  0.7497508226366392  0.0035290425408858
  0.7488885864112038  0.0083733523818277  0.0084507050618121
  0.5063826305615854  0.8468577140711279  0.3690513834569140
  0.7400753764965106  0.0926622673868375  0.3679137466715611
  0.4879259280376507  0.6540838988861537  0.6352714223204466
  0.7517847548371039  0.9166336775759020  0.6333656882310577
  0.2489486153255945  0.0006477862449516  1.0000783493792185
  0.4987283311706350  0.2461089203358688  1.0005244419897938
  0.2551375598993148  0.0985229896583841  0.3686094003434514
  0.4980000649197486  0.3337489344319945  0.3679615972454525
  0.2454636983545710  0.9050086969464474  0.6363317109340538
  0.5026245704526278  0.1599179696243719  0.6357435117452568

             NaN             NaN             NaN
             NaN             NaN             NaN
             NaN             NaN             NaN
             NaN             NaN             NaN
             NaN             NaN             NaN
             NaN             NaN             NaN
             NaN             NaN             NaN
             NaN             NaN             NaN
             NaN             NaN             NaN
             NaN             NaN             NaN
             NaN             NaN             NaN
             NaN             NaN             NaN
             NaN             NaN             NaN
             NaN             NaN             NaN
             NaN             NaN             NaN
             NaN             NaN             NaN
             NaN             NaN             NaN
             NaN             NaN             NaN
             NaN             NaN             NaN
             NaN             NaN             NaN
             NaN             NaN             NaN
             NaN             NaN             NaN
             NaN             NaN             NaN
             NaN             NaN             NaN
             NaN             NaN             NaN
             NaN             NaN             NaN
             NaN             NaN             NaN
             NaN             NaN             NaN
             NaN             NaN             NaN
             NaN             NaN             NaN
             NaN             NaN             NaN
             NaN             NaN             NaN
             NaN             NaN             NaN
             NaN             NaN             NaN
             NaN             NaN             NaN
             NaN             NaN             NaN
             NaN             NaN             NaN
             NaN             NaN             NaN
             NaN             NaN             NaN
             NaN             NaN             NaN
             NaN             NaN             NaN
             NaN             NaN             NaN
             NaN             NaN             NaN
             NaN             NaN             NaN
             NaN             NaN             NaN
             NaN             NaN             NaN
             NaN             NaN             NaN
             NaN             NaN             NaN
             NaN             NaN             NaN
             NaN             NaN             NaN
             NaN             NaN             NaN
             NaN             NaN             NaN
             NaN             NaN             NaN
             NaN             NaN             NaN
             NaN             NaN             NaN
             NaN             NaN             NaN
             NaN             NaN             NaN
             NaN             NaN             NaN
             NaN             NaN             NaN
             NaN             NaN             NaN
             NaN             NaN             NaN
             NaN             NaN             NaN
             NaN             NaN             NaN
             NaN             NaN             NaN
             NaN             NaN             NaN
             NaN             NaN             NaN
             NaN             NaN             NaN
             NaN             NaN             NaN
             NaN             NaN             NaN
             NaN             NaN             NaN
             NaN             NaN             NaN
             NaN             NaN             NaN
             NaN             NaN             NaN
             NaN             NaN             NaN
             NaN             NaN             NaN
             NaN             NaN             NaN
             NaN             NaN             NaN
             NaN             NaN             NaN
             NaN             NaN             NaN
             NaN             NaN             NaN
             NaN             NaN             NaN
             NaN             NaN             NaN
             NaN             NaN             NaN
             NaN             NaN             NaN
             NaN             NaN             NaN
             NaN             NaN             NaN
             NaN             NaN             NaN
             NaN             NaN             NaN
             NaN             NaN             NaN
             NaN             NaN             NaN
             NaN             NaN             NaN
             NaN             NaN             NaN
             NaN             NaN             NaN
             NaN             NaN             NaN
             NaN             NaN             NaN
