# Compound: Fe24Li31O16S24. Old comment: Li4Fe3S3O2 Enum Minimum PATH4 INIT FRAME 02
  1.0000000000
  7.8866538400  -7.9475567000   0.0601846200
  7.3433505600   7.9467915400  -2.8792872600
 -0.0478291200  -0.1071026000  10.5527142700
Fe    Li    O     S
   24    31    16    24
Direct
  0.2633955700   0.6652458100   0.6020115267
  0.2336066233   0.3350774233   0.3986996200
  0.1218301167   0.3252277367   0.7982752600
  0.3749366667   0.5792739100   0.8149914433
  0.8751860667   0.1755499033   0.1983368167
  0.1238652333   0.4206746933   0.1847609767
  0.0155138733  -0.0848472333   0.6020035200
 -0.0185657667   0.5829731500   0.3987969300
  0.8719699733   0.5719089967   0.7889957500
  0.1251334900   0.8293459667   0.8167034667
  0.6271615000   0.4261839333   0.1977075033
  0.8732742567   0.6693944933   0.1846546200
  0.7668134833   0.1658498300   0.6020502900
  0.7351086233   0.8311957400   0.3993695833
  0.6265337200   0.8196001233   0.7937496733
  0.8755397267   0.0790041700   0.8154751467
  0.3766062100   0.6753809000   0.1987604033
  0.6243945867  -0.0797581667   0.1862213300
  0.5179980967   0.4193523100   0.6015586267
  0.4855309800   0.0853645767   0.3992303333
  0.3744994333   0.0744778533   0.8030337500
  0.6254560067   0.3287903767   0.8134555233
  0.1247007633  -0.0754386467   0.1979236133
  0.3743289900   0.1704687500   0.1847060867
  0.4769741600   0.4769354233   0.0035623733
  0.0241860467   0.5269628500  -0.0043407633
 -0.1064053033   0.4613814433   0.6063401533
  0.0216590333   0.1231792833   0.3943175200
  0.8752841567   0.3389039833   0.8423840533
  0.1211875633   0.5642564300   0.7686578167
  0.1235042400   0.1629811800   0.1549398333
  0.3771042300   0.4335437300   0.2273431600
  0.2253411967   0.7250173333   0.0048647333
  0.7784407267   0.7761980367  -0.0028710700
  0.7734281967   0.3754555800   0.3967692167
  0.6280679700   0.5872786700   0.8415018333
  0.8711931333   0.8114394600   0.7635736867
  0.8741325833   0.4125858500   0.1546723067
  0.1263537033   0.6835420067   0.2277834600
 -0.0266629333  -0.0243771867   0.0042510833
  0.5268490200   0.0212565700  -0.0045120567
  0.4764463067   0.8794630600   0.6070389567
  0.5268037200   0.6198569567   0.3958574300
  0.3775718067   0.8353316200   0.8436818200
  0.6233910400   0.0658406667   0.7730768233
  0.6244717667   0.6620245800   0.1544339067
  0.8766526133  -0.0661308067   0.2283904033
  0.7255532100   0.2277255533   0.0038968100
  0.2737336900   0.2747572800  -0.0046344033
  0.2279664700   0.1291840300   0.6071310633
  0.2720633767   0.8703985367   0.3933825067
  0.1254350433   0.0877632267   0.8435888167
  0.3728813433   0.3165803233   0.7719100433
  0.3734966067  -0.0872589700   0.1550857100
  0.6271368733   0.1836987400   0.2269359800
 -0.0013125000   0.4537902567   0.8083369200
  0.2482810200   0.7015697200   0.8102671200
  0.0004887400   0.0501399000   0.1955624133
  0.2501896433   0.2981064067   0.1914863667
  0.7517334833   0.7036393800   0.8124053333
 -0.0011447233  -0.0492506733   0.8093067600
  0.7506374800   0.2999894633   0.1956170233
  0.0001710967   0.5480427833   0.1909869167
  0.5009439767  -0.0507234600   0.8053452933
  0.7496715033   0.2014043000   0.8094438500
  0.5010938700   0.5489314900   0.1954931200
  0.7501712067   0.7980645467   0.1917264367
  0.2489986033   0.2016344267   0.8052050733
  0.4994702400   0.4520225267   0.8081376867
  0.2508828233   0.7995622067   0.1959996000
  0.5000732367   0.0477884467   0.1920830433
 -0.0001290233   0.2496981600  -0.0007368900
  0.2507081867   0.5005229033   0.0014862367
  0.0051308800   0.3469753767   0.3650495467
  0.2452788533   0.5864317833   0.3667659100
 -0.0044898900   0.1510063567   0.6334490967
  0.2549708167   0.4131929100   0.6327922600
  0.7473517733   0.4975023667   0.0011659500
  0.0029171733   0.7543083600   0.0065486867
  0.7560436733   0.5967779633   0.3645675600
 -0.0053524633   0.8366732667   0.3676896000
  0.7430420033   0.3996702800   0.6340538500
  0.0085411633   0.6647623933   0.6317090500
  0.4981413267   0.7488432267   0.0021596100
  0.7509200900   0.0033413467   0.0044810733
  0.5054933400   0.8465352400   0.3678195167
  0.7445956767   0.0870135600   0.3675564967
  0.4906552700   0.6540025533   0.6345778667
  0.7550535867  -0.0844113867   0.6327927167
  0.2509452800   0.0007742633  -0.0006502700
  0.4994524733   0.2489846033  -0.0000959067
  0.2549361167   0.0969057267   0.3668299333
  0.4951804500   0.3367152967   0.3673704133
  0.2448200833  -0.0964563967   0.6337080367
  0.5037055067   0.1616409467   0.6338470033
