# Compound: Li64O32S64Fe64. Old comment: Fe2Li2OS2 supercell_05
  1.0000000000
 15.3795974400   0.0026079800  -0.0126780400
 -0.0027748800  15.3796192600  -0.0126780600
 -3.8335882400  -3.8349345400  12.8627506400
Li    O     S     Fe
   64    32    64    64
Direct
  0.1120524200   0.0312091250   0.0007189041
  0.6120524200   0.0312091250   0.0000025200
  0.1120524200   0.5312091250   0.0000025200
  0.6120524200   0.5312091250   0.0000025200
  0.1120524200   0.0312091250   0.5000025200
  0.6120524200   0.0312091250   0.5000025200
  0.1120524200   0.5312091250   0.5000025200
  0.6120524200   0.5312091250   0.5000025200
  0.3620552050   0.4946858650   0.0000117550
  0.8620552050   0.4946858650   0.0000117550
  0.3620552050   0.9946858650   0.0000117550
  0.8620552050   0.9946858650   0.0000117550
  0.3620552050   0.4946858650   0.5000117550
  0.8620552050   0.4946858650   0.5000117550
  0.3620552050   0.9946858650   0.5000117550
  0.8620552050   0.9946858650   0.5000117550
  0.1120552050   0.2446858650   0.0000117550
  0.6120552050   0.2446858650   0.0000117550
  0.1120552050   0.7446858650   0.0000117550
  0.6120552050   0.7446858650   0.0000117550
  0.1120552050   0.2446858650   0.5000117550
  0.6120552050   0.2446858650   0.5000117550
  0.1120552050   0.7446858650   0.5000117550
  0.6120552050   0.7446858650   0.5000117550
  0.3620524200   0.2812091250   0.0000025200
  0.8620524200   0.2812091250   0.0000025200
  0.3620524200   0.7812091250   0.0000025200
  0.8620524200   0.7812091250   0.0000025200
  0.3620524200   0.2812091250   0.5000025200
  0.8620524200   0.2812091250   0.5000025200
  0.3620524200   0.7812091250   0.5000025200
  0.8620524200   0.7812091250   0.5000025200
  0.2553141400   0.1379447950   0.4999882450
  0.7553141400   0.1379447950   0.4999882450
  0.2553141400   0.6379447950   0.4999882450
  0.7553141400   0.6379447950   0.4999882450
  0.2553141400   0.1379447950   0.9999882450
  0.7553141400   0.1379447950   0.9999882450
  0.2553141400   0.6379447950   0.9999882450
  0.7553141400   0.6379447950   0.9999882450
  0.4687908700   0.1379475800   0.4999974800
  0.9687908700   0.1379475800   0.4999974800
  0.4687908700   0.6379475800   0.4999974800
  0.9687908700   0.6379475800   0.4999974800
  0.4687908700   0.1379475800   0.9999974800
  0.9687908700   0.1379475800   0.9999974800
  0.4687908700   0.6379475800   0.9999974800
  0.9687908700   0.6379475800   0.9999974800
  0.2187908700   0.3879475800   0.4999974800
  0.7187908700   0.3879475800   0.4999974800
  0.2187908700   0.8879475800   0.4999974800
  0.7187908700   0.8879475800   0.4999974800
  0.2187908700   0.3879475800   0.9999974800
  0.7187908700   0.3879475800   0.9999974800
  0.2187908700   0.8879475800   0.9999974800
  0.7187908700   0.8879475800   0.9999974800
  0.0053141400   0.3879447950   0.4999882450
  0.5053141400   0.3879447950   0.4999882450
  0.0053141400   0.8879447950   0.4999882450
  0.5053141400   0.8879447950   0.4999882450
  0.0053141400   0.3879447950   0.9999882450
  0.5053141400   0.3879447950   0.9999882450
  0.0053141400   0.8879447950   0.9999882450
  0.5053141400   0.8879447950   0.9999882450
  0.2370508750   0.0129482350   0.4999989650
  0.7370508750   0.0129482350   0.4999989650
  0.2370508750   0.5129482350   0.4999989650
  0.7370508750   0.5129482350   0.4999989650
  0.2370508750   0.0129482350   0.9999989650
  0.7370508750   0.0129482350   0.9999989650
  0.2370508750   0.5129482350   0.9999989650
  0.7370508750   0.5129482350   0.9999989650
  0.4870520200   0.0129493750   0.0000010350
  0.9870520200   0.0129493750   0.0000010350
  0.4870520200   0.5129493750   0.0000010350
  0.9870520200   0.5129493750   0.0000010350
  0.4870520200   0.0129493750   0.5000010350
  0.9870520200   0.0129493750   0.5000010350
  0.4870520200   0.5129493750   0.5000010350
  0.9870520200   0.5129493750   0.5000010350
  0.2370520200   0.2629493750   0.0000010350
  0.7370520200   0.2629493750   0.0000010350
  0.2370520200   0.7629493750   0.0000010350
  0.7370520200   0.7629493750   0.0000010350
  0.2370520200   0.2629493750   0.5000010350
  0.7370520200   0.2629493750   0.5000010350
  0.2370520200   0.7629493750   0.5000010350
  0.7370520200   0.7629493750   0.5000010350
  0.4870508750   0.2629482350   0.4999989650
  0.9870508750   0.2629482350   0.4999989650
  0.4870508750   0.7629482350   0.4999989650
  0.9870508750   0.7629482350   0.4999989650
  0.4870508750   0.2629482350   0.9999989650
  0.9870508750   0.2629482350   0.9999989650
  0.4870508750   0.7629482350   0.9999989650
  0.9870508750   0.7629482350   0.9999989650
  0.1499079750   0.1758113300   0.1514402500
  0.6499079750   0.1758113300   0.1514402500
  0.1499079750   0.6758113300   0.1514402500
  0.6499079750   0.6758113300   0.1514402500
  0.1499079750   0.1758113300   0.6514402500
  0.6499079750   0.1758113300   0.6514402500
  0.1499079750   0.6758113300   0.6514402500
  0.6499079750   0.6758113300   0.6514402500
  0.3999078600   0.1758108400   0.1514368150
  0.8999078600   0.1758108400   0.1514368150
  0.3999078600   0.6758108400   0.1514368150
  0.8999078600   0.6758108400   0.1514368150
  0.3999078600   0.1758108400   0.6514368150
  0.8999078600   0.1758108400   0.6514368150
  0.3999078600   0.6758108400   0.6514368150
  0.8999078600   0.6758108400   0.6514368150
  0.1499078600   0.4258108400   0.1514368150
  0.6499078600   0.4258108400   0.1514368150
  0.1499078600   0.9258108400   0.1514368150
  0.6499078600   0.9258108400   0.1514368150
  0.1499078600   0.4258108400   0.6514368150
  0.6499078600   0.4258108400   0.6514368150
  0.1499078600   0.9258108400   0.6514368150
  0.6499078600   0.9258108400   0.6514368150
  0.3999079750   0.4258113300   0.1514402500
  0.8999079750   0.4258113300   0.1514402500
  0.3999079750   0.9258113300   0.1514402500
  0.8999079750   0.9258113300   0.1514402500
  0.3999079750   0.4258113300   0.6514402500
  0.8999079750   0.4258113300   0.6514402500
  0.3999079750   0.9258113300   0.6514402500
  0.8999079750   0.9258113300   0.6514402500
  0.0741891600   0.1000921400   0.3485631850
  0.5741891600   0.1000921400   0.3485631850
  0.0741891600   0.6000921400   0.3485631850
  0.5741891600   0.6000921400   0.3485631850
  0.0741891600   0.1000921400   0.8485631850
  0.5741891600   0.1000921400   0.8485631850
  0.0741891600   0.6000921400   0.8485631850
  0.5741891600   0.6000921400   0.8485631850
  0.3241886700   0.1000920250   0.3485597500
  0.8241886700   0.1000920250   0.3485597500
  0.3241886700   0.6000920250   0.3485597500
  0.8241886700   0.6000920250   0.3485597500
  0.3241886700   0.1000920250   0.8485597500
  0.8241886700   0.1000920250   0.8485597500
  0.3241886700   0.6000920250   0.8485597500
  0.8241886700   0.6000920250   0.8485597500
  0.0741886700   0.3500920250   0.3485597500
  0.5741886700   0.3500920250   0.3485597500
  0.0741886700   0.8500920250   0.3485597500
  0.5741886700   0.8500920250   0.3485597500
  0.0741886700   0.3500920250   0.8485597500
  0.5741886700   0.3500920250   0.8485597500
  0.0741886700   0.8500920250   0.8485597500
  0.5741886700   0.8500920250   0.8485597500
  0.3241891600   0.3500921400   0.3485631850
  0.8241891600   0.3500921400   0.3485631850
  0.3241891600   0.8500921400   0.3485631850
  0.8241891600   0.8500921400   0.3485631850
  0.3241891600   0.3500921400   0.8485631850
  0.8241891600   0.3500921400   0.8485631850
  0.3241891600   0.8500921400   0.8485631850
  0.8241891600   0.8500921400   0.8485631850
  0.0267790500   0.0527100600   0.1589770700
  0.5267790500   0.0527100600   0.1589770700
  0.0267790500   0.5527100600   0.1589770700
  0.5267790500   0.5527100600   0.1589770700
  0.0267790500   0.0527100600   0.6589770700
  0.5267790500   0.0527100600   0.6589770700
  0.0267790500   0.5527100600   0.6589770700
  0.5267790500   0.5527100600   0.6589770700
  0.2767718550   0.0527080400   0.1589736800
  0.7767718550   0.0527080400   0.1589736800
  0.2767718550   0.5527080400   0.1589736800
  0.7767718550   0.5527080400   0.1589736800
  0.2767718550   0.0527080400   0.6589736800
  0.7767718550   0.0527080400   0.6589736800
  0.2767718550   0.5527080400   0.6589736800
  0.7767718550   0.5527080400   0.6589736800
  0.0267718550   0.3027080400   0.1589736800
  0.5267718550   0.3027080400   0.1589736800
  0.0267718550   0.8027080400   0.1589736800
  0.5267718550   0.8027080400   0.1589736800
  0.0267718550   0.3027080400   0.6589736800
  0.5267718550   0.3027080400   0.6589736800
  0.0267718550   0.8027080400   0.6589736800
  0.5267718550   0.8027080400   0.6589736800
  0.2767790500   0.3027100600   0.1589770700
  0.7767790500   0.3027100600   0.1589770700
  0.2767790500   0.8027100600   0.1589770700
  0.7767790500   0.8027100600   0.1589770700
  0.2767790500   0.3027100600   0.6589770700
  0.7767790500   0.3027100600   0.6589770700
  0.2767790500   0.8027100600   0.6589770700
  0.7767790500   0.8027100600   0.6589770700
  0.1972919600   0.2232281450   0.3410263200
  0.6972919600   0.2232281450   0.3410263200
  0.1972919600   0.7232281450   0.3410263200
  0.6972919600   0.7232281450   0.3410263200
  0.1972919600   0.2232281450   0.8410263200
  0.6972919600   0.2232281450   0.8410263200
  0.1972919600   0.7232281450   0.8410263200
  0.6972919600   0.7232281450   0.8410263200
  0.4472899400   0.2232209500   0.3410229300
  0.9472899400   0.2232209500   0.3410229300
  0.4472899400   0.7232209500   0.3410229300
  0.9472899400   0.7232209500   0.3410229300
  0.4472899400   0.2232209500   0.8410229300
  0.9472899400   0.2232209500   0.8410229300
  0.4472899400   0.7232209500   0.8410229300
  0.9472899400   0.7232209500   0.8410229300
  0.1972899400   0.4732209500   0.3410229300
  0.6972899400   0.4732209500   0.3410229300
  0.1972899400   0.9732209500   0.3410229300
  0.6972899400   0.9732209500   0.3410229300
  0.1972899400   0.4732209500   0.8410229300
  0.6972899400   0.4732209500   0.8410229300
  0.1972899400   0.9732209500   0.8410229300
  0.6972899400   0.9732209500   0.8410229300
  0.4472919600   0.4732281450   0.3410263200
  0.9472919600   0.4732281450   0.3410263200
  0.4472919600   0.9732281450   0.3410263200
  0.9472919600   0.9732281450   0.3410263200
  0.4472919600   0.4732281450   0.8410263200
  0.9472919600   0.4732281450   0.8410263200
  0.4472919600   0.9732281450   0.8410263200
  0.9472919600   0.9732281450   0.8410263200
