# Compound: Li4O4S6Fe8. Old comment: Fe4
   1.00000000000000     
     5.5561168700000003    0.0000000000000000   -0.0001451700000000
     0.0000000000000000    5.5587259700000002    0.0000000000000000
    -2.7751089800000002    0.0000000000000000   10.1987222099999997
   Li   O    S    Fe
     4     4     6     8
Direct
  0.5778993899999989  0.9386781899999974  0.1558361599999998
  0.0929394300000013  0.4386995200000001  0.1858677000000029
  0.9070605699999987  0.9386995200000001  0.8141322999999971
  0.4221006100000011  0.4386781899999974  0.8441638400000002
  0.1530994199999967  0.1906199100000023  0.8025059300000024
  0.6494093299999975  0.6867634999999979  0.8025038299999991
  0.3505906700000025  0.1867634999999979  0.1974961700000009
  0.8469005800000033  0.6906199100000023  0.1974940699999976
  0.4373692599999970  0.6904679000000016  0.3710247599999974
  0.9336332000000027  0.1868979400000015  0.3710239899999976
  0.0663667999999973  0.6868979400000015  0.6289760100000024
  0.5626307400000030  0.1904679000000016  0.6289752400000026
  0.2487855800000034  0.6886861199999998  0.0000041199999998
  0.7512144199999966  0.1886861199999998  0.9999958800000002
  0.0764885099999972  0.2126959799999995  0.6063230600000011
  0.5298542499999996  0.6646530200000029  0.6063276300000027
  0.4701457500000004  0.1646530200000029  0.3936723699999973
  0.9235114900000028  0.7126959799999995  0.3936769399999989
  0.0769679599999975  0.9387280799999971  0.1539733099999978
  0.5772331499999979  0.4387138000000022  0.1544752499999973
  0.4227668500000021  0.9387138000000022  0.8455247500000027
  0.9230320400000025  0.4387280799999971  0.8460266900000022
 
  0.00000000E+00  0.00000000E+00  0.00000000E+00
  0.00000000E+00  0.00000000E+00  0.00000000E+00
  0.00000000E+00  0.00000000E+00  0.00000000E+00
  0.00000000E+00  0.00000000E+00  0.00000000E+00
  0.00000000E+00  0.00000000E+00  0.00000000E+00
  0.00000000E+00  0.00000000E+00  0.00000000E+00
  0.00000000E+00  0.00000000E+00  0.00000000E+00
  0.00000000E+00  0.00000000E+00  0.00000000E+00
  0.00000000E+00  0.00000000E+00  0.00000000E+00
  0.00000000E+00  0.00000000E+00  0.00000000E+00
  0.00000000E+00  0.00000000E+00  0.00000000E+00
  0.00000000E+00  0.00000000E+00  0.00000000E+00
  0.00000000E+00  0.00000000E+00  0.00000000E+00
  0.00000000E+00  0.00000000E+00  0.00000000E+00
  0.00000000E+00  0.00000000E+00  0.00000000E+00
  0.00000000E+00  0.00000000E+00  0.00000000E+00
  0.00000000E+00  0.00000000E+00  0.00000000E+00
  0.00000000E+00  0.00000000E+00  0.00000000E+00
  0.00000000E+00  0.00000000E+00  0.00000000E+00
  0.00000000E+00  0.00000000E+00  0.00000000E+00
  0.00000000E+00  0.00000000E+00  0.00000000E+00
  0.00000000E+00  0.00000000E+00  0.00000000E+00
