# Compound: Li4O4S6Fe8. Old comment: Fe4Li2O2S3 primitive cell
  1.0000000000
  5.5561168700   0.0000000000  -0.0001451700
  0.0000000000   5.5587259700   0.0000000000
 -2.7751089800   0.0000000000  10.1987222100
Li    O     S     Fe
    4     4     6     8
Direct
  0.5778993900   0.9386781900   0.1558361600
  0.0929394300   0.4386995200   0.1858677000
  0.9070605700   0.9386995200   0.8141323000
  0.4221006100   0.4386781900   0.8441638400
  0.1530994200   0.1906199100   0.8025059300
  0.6494093300   0.6867635000   0.8025038300
  0.3505906700   0.1867635000   0.1974961700
  0.8469005800   0.6906199100   0.1974940700
  0.4373692600   0.6904679000   0.3710247600
  0.9336332000   0.1868979400   0.3710239900
  0.0663668000   0.6868979400   0.6289760100
  0.5626307400   0.1904679000   0.6289752400
  0.2487855800   0.6886861200   0.0000041200
  0.7512144200   0.1886861200   0.9999958800
  0.0764885100   0.2126959800   0.6063230600
  0.5298542500   0.6646530200   0.6063276300
  0.4701457500   0.1646530200   0.3936723700
  0.9235114900   0.7126959800   0.3936769400
  0.0769679600   0.9387280800   0.1539733100
  0.5772331500   0.4387138000   0.1544752500
  0.4227668500   0.9387138000   0.8455247500
  0.9230320400   0.4387280800   0.8460266900
