# Compound: Li8O2S6Fe4. Old comment: Fe4
   1.0000000000000000     
     6.4240945399999996    0.0000000000000000    0.0000000000000000
     0.0000000000000000    6.0504490899999999    0.1917133500000000
     0.0000000000000000   -6.2886423300000001    7.4976267999999999
   Li   O    S    Fe
     8     2     6     4
Direct
  0.8064417800000001  0.1174377800000030  0.6596236399999995
  0.1935582199999999  0.6174377800000030  0.6596236399999995
  0.1943149800000015  0.1835358200000030  0.2253044599999967
  0.8056850199999985  0.6835358200000030  0.2253044599999967
  0.8569822199999990  0.5837660999999983  0.4421243899999965
  0.1430177800000010  0.0837660999999983  0.4421243899999965
  0.9535667899999964  0.6245442199999971  0.9433123900000027
  0.0464332100000036  0.1245442199999971  0.9433123900000027
  0.3274915499999977  0.3452278299999989  0.4424796400000020
  0.6725084500000023  0.8452278299999989  0.4424796400000020
  0.8103447800000012  0.5420572399999983  0.6754310600000011
  0.1896552199999988  0.0420572399999983  0.6754310600000011
  0.7068706599999999  0.3019880499999985  0.9424175199999993
  0.2931293400000001  0.8019880499999985  0.9424175199999993
  0.1896724799999987  0.5758403999999970  0.2089460299999999
  0.8103275200000013  0.0758403999999970  0.2089460299999999
  0.6367819700000013  0.9173164400000005  0.9418235300000006
  0.3632180299999987  0.4173164400000005  0.9418235300000006
  0.4192890300000016  0.6650631500000017  0.4423963500000028
  0.5807109699999984  0.1650631500000017  0.4423963500000028

  0.00000000E+00  0.00000000E+00  0.00000000E+00
  0.00000000E+00  0.00000000E+00  0.00000000E+00
  0.00000000E+00  0.00000000E+00  0.00000000E+00
  0.00000000E+00  0.00000000E+00  0.00000000E+00
  0.00000000E+00  0.00000000E+00  0.00000000E+00
  0.00000000E+00  0.00000000E+00  0.00000000E+00
  0.00000000E+00  0.00000000E+00  0.00000000E+00
  0.00000000E+00  0.00000000E+00  0.00000000E+00
  0.00000000E+00  0.00000000E+00  0.00000000E+00
  0.00000000E+00  0.00000000E+00  0.00000000E+00
  0.00000000E+00  0.00000000E+00  0.00000000E+00
  0.00000000E+00  0.00000000E+00  0.00000000E+00
  0.00000000E+00  0.00000000E+00  0.00000000E+00
  0.00000000E+00  0.00000000E+00  0.00000000E+00
  0.00000000E+00  0.00000000E+00  0.00000000E+00
  0.00000000E+00  0.00000000E+00  0.00000000E+00
  0.00000000E+00  0.00000000E+00  0.00000000E+00
  0.00000000E+00  0.00000000E+00  0.00000000E+00
  0.00000000E+00  0.00000000E+00  0.00000000E+00
  0.00000000E+00  0.00000000E+00  0.00000000E+00
