# No comment
0
Gamma
            4             5             3
  0.000000000   0.000000000   0.000000000
