# Compound: Li8O2S6Fe4. Old comment: Fe4Li8O2S6
  1.0000000000
  6.4240945400   0.0000000000   0.0000000000
  0.0000000000   6.0504490900   0.1917133500
  0.0000000000  -6.2886423300   7.4976268000
Li    O     S     Fe
    8     2     6     4
Direct
  0.8064417800   0.1174377800   0.6596236400
  0.1935582200   0.6174377800   0.6596236400
  0.1943149800   0.1835358200   0.2253044600
  0.8056850200   0.6835358200   0.2253044600
  0.8569822200   0.5837661000   0.4421243900
  0.1430177800   0.0837661000   0.4421243900
  0.9535667900   0.6245442200   0.9433123900
  0.0464332100   0.1245442200   0.9433123900
  0.3274915500   0.3452278300   0.4424796400
  0.6725084500   0.8452278300   0.4424796400
  0.8103447800   0.5420572400   0.6754310600
  0.1896552200   0.0420572400   0.6754310600
  0.7068706600   0.3019880500   0.9424175200
  0.2931293400   0.8019880500   0.9424175200
  0.1896724800   0.5758404000   0.2089460300
  0.8103275200   0.0758404000   0.2089460300
  0.6367819700   0.9173164400   0.9418235300
  0.3632180300   0.4173164400   0.9418235300
  0.4192890300   0.6650631500   0.4423963500
  0.5807109700   0.1650631500   0.4423963500
