# Compound: Fe24Li31O16S24. Old comment:
   1.0000000000000000     
     7.8866538400000001   -7.9475566999999998    0.0601846200000000
     7.3433505600000002    7.9467915400000004   -2.8792872599999999
    -0.0478291200000000   -0.1071026000000000   10.5527142699999992
   Fe   Li   O    S 
    24    31    16    24
Direct
  0.2610538265173215  0.6633390478794975  0.6022598706561989
  0.2316776267884503  0.3327177449231866  0.3979482281578342
  0.1226806553289449  0.3251008642131270  0.8025943154371206
  0.3743182091435033  0.5808775476320980  0.8187808949973142
  0.8752337124042134  0.1760681129150128  0.1953833224452330
  0.1255650412050197  0.4216392291233246  0.1822983216611741
  0.0169327703318110  0.9163357490837651  0.6000368209734501
  0.9887625047914060  0.5864469109864124  0.3955685147066703
  0.8682841424891997  0.5717760651827514  0.7920100478189147
  0.1238010868074098  0.8286363451002307  0.8159162184573628
  0.6230989326085412  0.4312396554746956  0.2066542550553515
  0.8757484632667176  0.6709545156388854  0.1812944453853313
  0.7633269425399591  0.1665620135433207  0.5995973229130788
  0.7347002739635118  0.8332956591873532  0.3958427384218281
  0.6219846565070323  0.8229249385516098  0.8012201715406785
  0.8733234026974258  0.0778416599815196  0.8131237532859328
  0.3819436629011770  0.6777540767146075  0.2110391336128262
  0.6236790588720503  0.9205571581034697  0.1850436779039185
  0.5074249663977208  0.4162913878619116  0.6017878839870570
  0.4854928882078192  0.0858010210196949  0.3974449303453452
  0.3740168072752298  0.0744203471129709  0.8019205622200445
  0.6246598854225761  0.3301117423612435  0.8126450194332085
  0.1268337742566797  0.9248483114595162  0.1962538914073794
  0.3754632964525535  0.1724455564828261  0.1848851964672577
  0.4693962409538882  0.4700717340991387  0.0025669514931404
  0.0203891424076672  0.5243950367113878  0.9923247322922274
  0.9768057013303971  0.3780148533550062  0.6049412255313972
  0.0216949857927746  0.1202030092932600  0.3910252455832710
  0.8749782758805394  0.3369279413503583  0.8439981380894668
  0.1215774638564912  0.5662226937311107  0.7759174460414574
  0.1240639814313106  0.1631058247701611  0.1545421268509641
  0.3805133141760581  0.4426532560690780  0.2447920007483491
  0.2284570573633669  0.7252385703716402  0.0066543878004865
  0.7763624281072689  0.7753079995460861  0.9942657384233865
  0.7756882260302305  0.3720924315733093  0.3912135467695314
  0.6235925483239090  0.5886886141410033  0.8452573028679674
  0.8700240872342271  0.8109341831320809  0.7605644035848084
  0.8722496626234324  0.4155000643859544  0.1550942884839502
  0.1281786215063635  0.6838033554610817  0.2236422843691134
  0.9735399211375401  0.9757428264097636  0.0023019761459386
  0.5246346781344602  0.0219727929529862  0.9951292354339243
  0.4763285429081136  0.8719756854685737  0.6033020515836569
  0.6896370088694584  0.6267072902302747  0.5761350806730348
  0.3753158129784727  0.8355903976818710  0.8435254513397040
  0.6210747176947274  0.0665376222271594  0.7718829965212292
  0.6234088252164299  0.6605081570342988  0.1573640299611398
  0.8775095725127624  0.9337217473910570  0.2254025173779059
  0.7227319630804051  0.2299568153611030  0.0034929528394948
  0.2759115490676880  0.2743244586718803  0.9965345986468186
  0.2270019560124342  0.1293803285411584  0.6071371370343632
  0.2733904376315806  0.8732684935809506  0.3936081919415104
  0.1249503234032590  0.0867026280343844  0.8448439218897131
  0.3710177367397893  0.3162372170097841  0.7740682256948308
  0.3753837782217935  0.9124532158397440  0.1563028270108596
  0.6276552011033197  0.1835137004066448  0.2251548529607201
  0.9960312108553100  0.4501407374413731  0.8016990630733423
  0.2472591973144057  0.7020359320721630  0.8114670313280159
  0.0004715965885278  0.0496473460280146  0.1929482883984977
  0.2513146344092027  0.3001712485599693  0.1922108394109945
  0.7472388275340818  0.7020782465656615  0.8050578966717127
  0.9977976093510308  0.9502942242493683  0.8060176940637318
  0.7490612264847449  0.3011535502925702  0.1938113920754446
  0.0018330478571413  0.5480506442940439  0.1864964176971805
  0.4985794948495917  0.9493800635050448  0.8039884976436258
  0.7488289690563793  0.2019467621531961  0.8060254825357605
  0.4981349971041151  0.5439865158088427  0.1834721393406631
  0.7507324932384860  0.7983338688518592  0.1892852179716262
  0.2478667705893537  0.1997099525837262  0.8052233817993286
  0.4975030383168722  0.4517654632555763  0.8097688810652000
  0.2531933871229793  0.7987661551836057  0.1961944388189508
  0.5004370368383154  0.0489786803243375  0.1894709493253961
  0.9985708633239160  0.2490310566390614 -0.0011677632025921
  0.2445204170680216  0.4956478147550846  0.9924367381115669
  0.0049127289240952  0.3466396444295009  0.3648571910927716
  0.2389463867811810  0.5880891673534429  0.3673689579215921
  0.9936384345573867  0.1526926089220039  0.6316612871986759
  0.2539225792409965  0.4128016633655606  0.6317917888359180
  0.7517807245443298  0.4999988649947484  0.9950490855516529
  0.0019479527920884  0.7527907946938249  0.0027153153351713
  0.7626931107845616  0.5957778691976083  0.3586977040964530
  0.9957997666099676  0.8371358996533672  0.3660614292328561
  0.7404256556478295  0.4035100482971144  0.6286364408025790
  0.0078835723313210  0.6620010188752166  0.6316196159373570
  0.5001734046384821  0.7525781966705484  0.0006457471145316
  0.7500542613756491  0.0026864326714439 -0.0000507691918548
  0.5064011359461680  0.8525737221626177  0.3667555305827973
  0.7462856491752818  0.0871807974220322  0.3652512401376768
  0.4853037651359601  0.6528811992959536  0.6388193751840899
  0.7515409604473541  0.9123043118580250  0.6305546629621227
  0.2490679213098354  1.0000920579353993  0.0003039650521477
  0.4980729032698928  0.2447515850470984  0.9942272061954401
  0.2542657105305877  0.0973174509804405  0.3664701154258597
  0.4958421633055092  0.3324404961119827  0.3673721967524179
  0.2441717081943182  0.9031149828245769  0.6335238902455358
  0.5030791099176759  0.1644345499035067  0.6326195607440963

             NaN             NaN             NaN
             NaN             NaN             NaN
             NaN             NaN             NaN
             NaN             NaN             NaN
             NaN             NaN             NaN
             NaN             NaN             NaN
             NaN             NaN             NaN
             NaN             NaN             NaN
             NaN             NaN             NaN
             NaN             NaN             NaN
             NaN             NaN             NaN
             NaN             NaN             NaN
             NaN             NaN             NaN
             NaN             NaN             NaN
             NaN             NaN             NaN
             NaN             NaN             NaN
             NaN             NaN             NaN
             NaN             NaN             NaN
             NaN             NaN             NaN
             NaN             NaN             NaN
             NaN             NaN             NaN
             NaN             NaN             NaN
             NaN             NaN             NaN
             NaN             NaN             NaN
             NaN             NaN             NaN
             NaN             NaN             NaN
             NaN             NaN             NaN
             NaN             NaN             NaN
             NaN             NaN             NaN
             NaN             NaN             NaN
             NaN             NaN             NaN
             NaN             NaN             NaN
             NaN             NaN             NaN
             NaN             NaN             NaN
             NaN             NaN             NaN
             NaN             NaN             NaN
             NaN             NaN             NaN
             NaN             NaN             NaN
             NaN             NaN             NaN
             NaN             NaN             NaN
             NaN             NaN             NaN
             NaN             NaN             NaN
             NaN             NaN             NaN
             NaN             NaN             NaN
             NaN             NaN             NaN
             NaN             NaN             NaN
             NaN             NaN             NaN
             NaN             NaN             NaN
             NaN             NaN             NaN
             NaN             NaN             NaN
             NaN             NaN             NaN
             NaN             NaN             NaN
             NaN             NaN             NaN
             NaN             NaN             NaN
             NaN             NaN             NaN
             NaN             NaN             NaN
             NaN             NaN             NaN
             NaN             NaN             NaN
             NaN             NaN             NaN
             NaN             NaN             NaN
             NaN             NaN             NaN
             NaN             NaN             NaN
             NaN             NaN             NaN
             NaN             NaN             NaN
             NaN             NaN             NaN
             NaN             NaN             NaN
             NaN             NaN             NaN
             NaN             NaN             NaN
             NaN             NaN             NaN
             NaN             NaN             NaN
             NaN             NaN             NaN
             NaN             NaN             NaN
             NaN             NaN             NaN
             NaN             NaN             NaN
             NaN             NaN             NaN
             NaN             NaN             NaN
             NaN             NaN             NaN
             NaN             NaN             NaN
             NaN             NaN             NaN
             NaN             NaN             NaN
             NaN             NaN             NaN
             NaN             NaN             NaN
             NaN             NaN             NaN
             NaN             NaN             NaN
             NaN             NaN             NaN
             NaN             NaN             NaN
             NaN             NaN             NaN
             NaN             NaN             NaN
             NaN             NaN             NaN
             NaN             NaN             NaN
             NaN             NaN             NaN
             NaN             NaN             NaN
             NaN             NaN             NaN
             NaN             NaN             NaN
             NaN             NaN             NaN
