# Compound: Fe24Li31O16S24. Old comment: Li4Fe3S3O2 Enum Minimum PATH3 INIT FRAME 05
  1.0000000000
  7.8866538400  -7.9475567000   0.0601846200
  7.3433505600   7.9467915400  -2.8792872600
 -0.0478291200  -0.1071026000  10.5527142700
Fe    Li    O     S
   24    31    16    24
Direct
  0.2685067950   0.6650338467   0.6015832067
  0.2337762683   0.3334835950   0.3983508750
  0.1246866983   0.3258205850   0.8025965767
  0.3768717300   0.5808295217   0.8162887817
  0.8748513300   0.1759584600   0.1970296400
  0.1250421067   0.4208544400   0.1834931583
  0.0149373150  -0.0848277567   0.6013530983
 -0.0132726100   0.5854841767   0.3979136267
  0.8719939200   0.5738724800   0.7981841783
  0.1254063383   0.8286799000   0.8150553067
  0.6235998283   0.4315026767   0.2088846067
  0.8748917217   0.6705919317   0.1856430650
  0.7645796650   0.1642828833   0.6008125117
  0.7297373350   0.8282059500   0.3989825583
  0.6236565533   0.8227191750   0.8009904967
  0.8756944767   0.0798997883   0.8158965683
  0.3799800467   0.6761666700   0.2093275783
  0.6243882700  -0.0785760750   0.1869863767
  0.5161218050   0.4208279767   0.6007349150
  0.4854822600   0.0868184650   0.3977437967
  0.3757423500   0.0745443350   0.8008997117
  0.6257315533   0.3294776683   0.8128852733
  0.1266466317  -0.0757399950   0.1969436917
  0.3745896833   0.1707855783   0.1835308750
  0.4718274800   0.4712799333   0.0022922567
  0.0228938450   0.5250047150  -0.0053062283
 -0.0219969250   0.3791315950   0.6063359967
  0.0220818067   0.1200938233   0.3923868867
  0.8759775117   0.3376502633   0.8444717633
  0.1234765717   0.5666232867   0.7732432483
  0.1237132267   0.1628564983   0.1559986367
  0.3795092333   0.4398064950   0.2403537417
  0.2279392533   0.7245190183   0.0054153950
  0.7740888250   0.7734052333  -0.0026005100
  0.7740361817   0.3720043217   0.3936705617
  0.6255378867   0.5883023483   0.8453246167
  0.8720456117   0.8151506233   0.7698268583
  0.8720953017   0.4152347150   0.1560735317
  0.1280006733   0.6832844967   0.2259028983
 -0.0254071533  -0.0246030583   0.0042787067
  0.5256418567   0.0218501233  -0.0044941250
  0.4789387933   0.8725452917   0.6039134483
  0.6884430500   0.6285273850   0.5686069800
  0.3765314383   0.8366435000   0.8447976283
  0.6230952133   0.0661841483   0.7734389667
  0.6224595450   0.6612200417   0.1583934150
  0.8766310967  -0.0662329233   0.2298366200
  0.7226708633   0.2298949033   0.0045109633
  0.2769793183   0.2752391617  -0.0042308650
  0.2274185400   0.1293707000   0.6068956633
  0.2721779367   0.8724213400   0.3937607333
  0.1265743417   0.0870099283   0.8450646600
  0.3734983567   0.3160757667   0.7703763067
  0.3757721900  -0.0886737683   0.1564829667
  0.6268054450   0.1843384817   0.2256178633
 -0.0014171400   0.4509711850   0.8038902600
  0.2496837183   0.7020225550   0.8096516317
  0.0000957633   0.0489708100   0.1944140367
  0.2512960967   0.2993317183   0.1916682467
  0.7493853067   0.7021153883   0.8067849867
 -0.0004983600  -0.0484108400   0.8084324267
  0.7489734567   0.3015455700   0.1948297267
  0.0014805900   0.5478995267   0.1889484167
  0.4999162183  -0.0508100783   0.8043496717
  0.7498910050   0.2021876067   0.8083776917
  0.4985558317   0.5444708400   0.1857906950
  0.7500047450   0.7980540383   0.1930976900
  0.2496155967   0.2003199450   0.8047523333
  0.4996045567   0.4517489583   0.8082945717
  0.2527496317   0.7978356133   0.1955606817
  0.5005302250   0.0486376583   0.1895204667
 -0.0006331400   0.2495502217   0.0000308583
  0.2468288417   0.4968789400  -0.0053889317
  0.0052931800   0.3463660200   0.3660256333
  0.2404881050   0.5869760033   0.3679675317
 -0.0050484400   0.1530006850   0.6329986333
  0.2546705900   0.4134715483   0.6322455350
  0.7521978783   0.5012877667  -0.0027238317
  0.0013048250   0.7514874117   0.0018376550
  0.7605323150   0.5960270150   0.3649509383
 -0.0025829967   0.8366229117   0.3668486483
  0.7444743017   0.4026633467   0.6321097333
  0.0057023733   0.6636392883   0.6335339783
  0.5015195317   0.7518919167   0.0006273567
  0.7506229833   0.0017135783   0.0006484100
  0.5048810417   0.8516296733   0.3667016417
  0.7453372017   0.0890169400   0.3660088217
  0.4927627467   0.6530398317   0.6370219917
  0.7549980567  -0.0860274050   0.6320221400
  0.2493418650  -0.0006329383   0.0008745650
  0.4986239267   0.2452438700  -0.0051364250
  0.2545919683   0.0970571333   0.3666194967
  0.4948641200   0.3325142600   0.3677828033
  0.2452606433  -0.0967947767   0.6338251167
  0.5055646467   0.1627238983   0.6329038650
