# Compound: Li8Fe4S4O4. Old comment: FeL
   1.00000000000000     
     7.6878185600000002    0.0000000000000000    0.0000000000000000
     0.0000000000000000    5.6237854199999999    0.0412950300000000
     0.0000000000000000    0.0423643500000000    5.6236389700000000
   Li   Fe   S    O 
     8     4     4     4
Direct
  0.2505135999999979  0.5510717599999992  0.9490796199999991
  0.2505135999999979  0.9489282400000008  0.5509203800000009
  0.7494864000000021  0.4489282400000008  0.0509203800000009
  0.7494864000000021  0.0510717599999992  0.4490796199999991
  0.5520047199999993  0.7500000000000000  0.7500000000000000
  0.4479952800000007  0.2500000000000000  0.2500000000000000
  0.9998814499999966  0.7500000000000000  0.2500000000000000
  0.0001185500000034  0.2500000000000000  0.7500000000000000
  0.9582580900000011  0.7500000000000000  0.7500000000000000
  0.0417419099999989  0.2500000000000000  0.2500000000000000
  0.5000697299999999  0.7500000000000000  0.2500000000000000
  0.4999302700000001  0.2500000000000000  0.7500000000000000
  0.2509381300000015  0.9991976199999968  0.9991791100000000
  0.2509381300000015  0.5008023800000032  0.5008208900000000
  0.7490618699999985  0.0008023800000032  0.0008208900000000
  0.7490618699999985  0.4991976199999968  0.4991791100000000
  0.0000000000000000  0.5000000000000000  0.0000000000000000
  0.0000000000000000  0.0000000000000000  0.5000000000000000
  0.5000000000000000  0.5000000000000000  0.0000000000000000
  0.5000000000000000  0.0000000000000000  0.5000000000000000
 
  0.00000000E+00  0.00000000E+00  0.00000000E+00
  0.00000000E+00  0.00000000E+00  0.00000000E+00
  0.00000000E+00  0.00000000E+00  0.00000000E+00
  0.00000000E+00  0.00000000E+00  0.00000000E+00
  0.00000000E+00  0.00000000E+00  0.00000000E+00
  0.00000000E+00  0.00000000E+00  0.00000000E+00
  0.00000000E+00  0.00000000E+00  0.00000000E+00
  0.00000000E+00  0.00000000E+00  0.00000000E+00
  0.00000000E+00  0.00000000E+00  0.00000000E+00
  0.00000000E+00  0.00000000E+00  0.00000000E+00
  0.00000000E+00  0.00000000E+00  0.00000000E+00
  0.00000000E+00  0.00000000E+00  0.00000000E+00
  0.00000000E+00  0.00000000E+00  0.00000000E+00
  0.00000000E+00  0.00000000E+00  0.00000000E+00
  0.00000000E+00  0.00000000E+00  0.00000000E+00
  0.00000000E+00  0.00000000E+00  0.00000000E+00
  0.00000000E+00  0.00000000E+00  0.00000000E+00
  0.00000000E+00  0.00000000E+00  0.00000000E+00
  0.00000000E+00  0.00000000E+00  0.00000000E+00
  0.00000000E+00  0.00000000E+00  0.00000000E+00
