# Compound: Li8Fe4S4O4. Old comment: FeLi2OS primitive cell
  1.0000000000
  7.6878185600   0.0000000000   0.0000000000
  0.0000000000   5.6237854200   0.0412950300
  0.0000000000   0.0423643500   5.6236389700
Li    Fe    S     O
    8     4     4     4
Direct
  0.2505136000   0.5510717600   0.9490796200
  0.2505136000   0.9489282400   0.5509203800
  0.7494864000   0.4489282400   0.0509203800
  0.7494864000   0.0510717600   0.4490796200
  0.5520047200   0.7500000000   0.7500000000
  0.4479952800   0.2500000000   0.2500000000
  0.9998814500   0.7500000000   0.2500000000
  0.0001185500   0.2500000000   0.7500000000
  0.9582580900   0.7500000000   0.7500000000
  0.0417419100   0.2500000000   0.2500000000
  0.5000697300   0.7500000000   0.2500000000
  0.4999302700   0.2500000000   0.7500000000
  0.2509381300   0.9991976200   0.9991791100
  0.2509381300   0.5008023800   0.5008208900
  0.7490618700   0.0008023800   0.0008208900
  0.7490618700   0.4991976200   0.4991791100
  0.0000000000   0.5000000000  -0.0000000000
  0.0000000000  -0.0000000000   0.5000000000
  0.5000000000   0.5000000000  -0.0000000000
  0.5000000000  -0.0000000000   0.5000000000
