# Compound: Fe32Li31O16S32. Old comment:
   1.0000000000000000     
     7.6911861600000000   -7.6885056399999998    0.0000000100000000
     7.6884112800000004    7.6911136200000003   -0.0126780500000000
    -3.8335882400000001   -3.8349345399999999   12.8627506399999998
   Fe   Li   O    S 
    32    31    16    32
Direct
  0.9740843484349128  0.0798822939896928  0.1598566302471780
  0.2251077065599504  0.3313294161367686  0.1588943619952897
  0.7255745763917185  0.3300604033221931  0.1582963671107348
  0.9737417894216150  0.5793045439224155  0.1584887762462606
  0.9743724386890549  0.4233162113176696  0.3416244482592327
  0.2305750633722085  0.6745875210605169  0.3427579091292029
  0.7151774411929159  0.6680378530800077  0.3455038968825543
  0.9740558320983365  0.9183247998859505  0.3415220462325660
  0.9740337089882910  0.0767803278786553  0.6584834998656399
  0.2255950337705875  0.3289681940756480  0.6582710075785535
  0.7225159872176520  0.3288878141706297  0.6582177439074846
  0.9743936965643996  0.5816460146924975  0.6583665570986647
  0.9740886588626344  0.4200155196315380  0.8401468569780524
  0.2250824897657512  0.6724638955338050  0.8411011063383222
  0.7255646668936981  0.6716768038559372  0.8416988742896084
  0.9737350353666302  0.9207957019386853  0.8415131379987145
  0.4734847125671354  0.5759718297753218  0.1506984237438554
  0.7232833003419551  0.8271917359983997  0.1587845166460605
  0.2225750646785617  0.8282837278760423  0.1580971630389931
  0.4740648845288326  0.0811571421457229  0.1620580240598716
  0.4707242604289134  0.9141001379534907  0.3429339846215060
  0.7225027010219564  0.1706628204343677  0.3417793642703305
  0.2255852491152173  0.1706214838685752  0.3417302864763878
  0.4791656458124345  0.4326676495350862  0.3457269313145456
  0.4791762219109927  0.5869324739629327  0.6542645113824993
  0.7151744378964759  0.8225234084856533  0.6545180738517735
  0.2305626583312129  0.8318060285650217  0.6572343882126640
  0.4707192353871326  0.0711642255474064  0.6570719866873509
  0.4734775359872332  0.9252708209803878  0.8493008703657126
  0.7232788722966218  0.1683738670186106  0.8412176038339945
  0.2225529702383126  0.1701766196697377  0.8419013581651921
  0.4740587728220782  0.4191212514908919  0.8379386859268443
  0.0806017603246409  0.1434002759402799  0.0009797992599804
  0.8676720094623260  0.8574962772978019  0.0009166395553630
  0.8676833977360746  0.3565628130470524  0.9990721103280129
  0.0806117699627229  0.6424087990996724  0.9990192184201792
  0.1120617065109800  0.3880251868264707  0.4999803958991371
  0.3120551314363400  0.5841775983920421  0.4999985471064480
  0.8186993722224152  0.6053383658165848  0.5000013092248066
  0.6181903397066164  0.4044642417619366  0.4999973268632428
  0.0826923798518373  0.1411006839218133  0.5000165851446631
  0.8761076769136951  0.8516009537646347  0.5000072343444583
  0.8653867414353272  0.3588871312446390  0.4999971611938088
  0.0773056506101185  0.6470785706328108  0.4999905421346900
  0.1167775711023595  0.3925962541225059 -0.0002205363707939
  0.3289316177391999  0.6038869985239734 -0.0033100680356499
  0.8314908408977354  0.6071220777521683 -0.0002242180815781
  0.6195936282386796  0.3930443958685080 -0.0029924197696829
  0.5805615412206427  0.6431012131325820  0.9963438594372073
  0.3677992281070096  0.3533261612113841 -0.0031815059609515
  0.3678075624468021  0.8564888004297493  1.0031762412833360
  0.5805749566469508  0.1467481756814844  0.0036684206738027
  0.6404922929497423  0.9116570377388356  0.5000118490900047
  0.8364508123592740  0.1115389146384211  0.4999917104930656
  0.3303342350260409  0.0941306828577451  0.5000069475402400
  0.1306465552370548  0.8943944595041029  0.5000062779708201
  0.3713337510704495  0.3490728265928795  0.4999852997629735
  0.4330421899276284  0.7913731346170398  0.4999997449802449
  0.5781329859166570  0.1456536021321350  0.5000032460889600
  0.6196069402835174  0.8960240309859022  1.0029634621439683
  0.8314903265532035  0.1073636527903617  1.0002467362867555
  0.3289414461511607  0.1071934212435246  1.0033089684404388
  0.1167739019131813  0.8928265012537985  1.0002315026829851
  0.2257783816730616  0.2456980383538417  0.5000009887046265
  0.4743563899937958  0.4977469851930112  0.9960346776293600
  0.9741863930399437  0.4996784995268978 -0.0006246015023699
  0.2346751458943427  0.7432566719155258  0.4999962610705932
  0.2241049587159365  0.2494921023688938  0.0003704914345258
  0.4650764060368304  0.4980163629265073  0.4999965142699487
  0.9704352161360301  0.5024693282343559  0.4999954857771775
  0.2241048569406173  0.7491259241169294  0.9996273925883676
  0.7266047644392830  0.7589074401023695  0.5000100104614901
  0.9741850543734102  1.0003079940188389  1.0006274245006184
  0.4743592853800653  0.0016993174526607  0.0039631218080107
  0.7221610074781337  0.2534042668641031  0.4999979287531260
  0.7241536584973809  0.7507087167043884  0.0002048467821995
  0.9785313929719367 -0.0022331269871125  0.5000031467683028
  0.4810200762575827  0.9886746667248576  0.5000034095272742
  0.7241552931993007  0.2505097682371257  0.9997943427462080
  0.9732532994677789  0.3256489092825274  0.1517021905531102
  0.2238201920587204  0.5751319732139862  0.1514119860491181
  0.7259640809588711  0.5767275565325028  0.1526925422014156
  0.9750248723125805  0.8259650417621781  0.1514700293697980
  0.9741879022583594  0.1747031094326769  0.3495644807429807
  0.2182977422586583  0.4184902044385364  0.3465659436225870
  0.7237997071662835  0.4235585031401374  0.3465937279818514
  0.9777092948088929  0.6738029388237848  0.3472111994688997
  0.9741855094114694  0.3251478364232510  0.6504380266431169
  0.2182922477722965  0.5719253142311151  0.6534272556354187
  0.7238001388731371  0.5769567149157807  0.6534029570326925
  0.9777163485465654  0.8265839666115630  0.6527903883643883
  0.9750257585620015  0.1744998369869248  0.8485314370928582
  0.2234503709916949  0.4220581946814347  0.8479002098323870
  0.7248568039145261  0.4257895565692230  0.8479110747380875
  0.9732554216789882  0.6739474042984592  0.8482945004174964
  0.4757280296914062  0.8258622012338113  0.1518886830650486
  0.7248512239105880  0.0778707130645449  0.1520876903094257
  0.2234518722368802  0.0741566959555061  0.1520999436362785
  0.4724995402150742  0.3251402058973061  0.1534490925630559
  0.4770993399227827  0.6636688791569854  0.3330810772002495
  0.7290454997233886  0.9287718825903795  0.3464569441706976
  0.2253597649285805  0.9218475505970698  0.3462629916302661
  0.4738884636698666  0.1706844524766604  0.3488471279279151
  0.4770992585594108  0.8305854802600309  0.6669191446123676
  0.7290487923767033  0.0823284134899092  0.6535486978510575
  0.2253593902639540  0.0755799419610703  0.6537398964905948
  0.4738864111998029  0.3218471114294811  0.6511503181984661
  0.4725003112216279  0.6716891053745851  0.8465445449300351
  0.7259700211338518  0.9240437018922001  0.8473155399357739
  0.2238206785428661  0.9237160772848698  0.8485848609133849
  0.4757344470926762  0.1739798889775966  0.8481151853075535

             NaN             NaN             NaN
             NaN             NaN             NaN
             NaN             NaN             NaN
             NaN             NaN             NaN
             NaN             NaN             NaN
             NaN             NaN             NaN
             NaN             NaN             NaN
             NaN             NaN             NaN
             NaN             NaN             NaN
             NaN             NaN             NaN
             NaN             NaN             NaN
             NaN             NaN             NaN
             NaN             NaN             NaN
             NaN             NaN             NaN
             NaN             NaN             NaN
             NaN             NaN             NaN
             NaN             NaN             NaN
             NaN             NaN             NaN
             NaN             NaN             NaN
             NaN             NaN             NaN
             NaN             NaN             NaN
             NaN             NaN             NaN
             NaN             NaN             NaN
             NaN             NaN             NaN
             NaN             NaN             NaN
             NaN             NaN             NaN
             NaN             NaN             NaN
             NaN             NaN             NaN
             NaN             NaN             NaN
             NaN             NaN             NaN
             NaN             NaN             NaN
             NaN             NaN             NaN
             NaN             NaN             NaN
             NaN             NaN             NaN
             NaN             NaN             NaN
             NaN             NaN             NaN
             NaN             NaN             NaN
             NaN             NaN             NaN
             NaN             NaN             NaN
             NaN             NaN             NaN
             NaN             NaN             NaN
             NaN             NaN             NaN
             NaN             NaN             NaN
             NaN             NaN             NaN
             NaN             NaN             NaN
             NaN             NaN             NaN
             NaN             NaN             NaN
             NaN             NaN             NaN
             NaN             NaN             NaN
             NaN             NaN             NaN
             NaN             NaN             NaN
             NaN             NaN             NaN
             NaN             NaN             NaN
             NaN             NaN             NaN
             NaN             NaN             NaN
             NaN             NaN             NaN
             NaN             NaN             NaN
             NaN             NaN             NaN
             NaN             NaN             NaN
             NaN             NaN             NaN
             NaN             NaN             NaN
             NaN             NaN             NaN
             NaN             NaN             NaN
             NaN             NaN             NaN
             NaN             NaN             NaN
             NaN             NaN             NaN
             NaN             NaN             NaN
             NaN             NaN             NaN
             NaN             NaN             NaN
             NaN             NaN             NaN
             NaN             NaN             NaN
             NaN             NaN             NaN
             NaN             NaN             NaN
             NaN             NaN             NaN
             NaN             NaN             NaN
             NaN             NaN             NaN
             NaN             NaN             NaN
             NaN             NaN             NaN
             NaN             NaN             NaN
             NaN             NaN             NaN
             NaN             NaN             NaN
             NaN             NaN             NaN
             NaN             NaN             NaN
             NaN             NaN             NaN
             NaN             NaN             NaN
             NaN             NaN             NaN
             NaN             NaN             NaN
             NaN             NaN             NaN
             NaN             NaN             NaN
             NaN             NaN             NaN
             NaN             NaN             NaN
             NaN             NaN             NaN
             NaN             NaN             NaN
             NaN             NaN             NaN
             NaN             NaN             NaN
             NaN             NaN             NaN
             NaN             NaN             NaN
             NaN             NaN             NaN
             NaN             NaN             NaN
             NaN             NaN             NaN
             NaN             NaN             NaN
             NaN             NaN             NaN
             NaN             NaN             NaN
             NaN             NaN             NaN
             NaN             NaN             NaN
             NaN             NaN             NaN
             NaN             NaN             NaN
             NaN             NaN             NaN
             NaN             NaN             NaN
             NaN             NaN             NaN
             NaN             NaN             NaN
