# Compound: Fe32Li31O16S32. Old comment: Fe32Li31O16S32
  1.0000000000
  7.6911861600  -7.6885056400   0.0000000100
  7.6884112800   7.6911136200  -0.0126780500
 -3.8335882400  -3.8349345400  12.8627506400
Fe    Li    O     S
   32    31    16    32
Direct
  0.9739968686   0.0793798223   0.1586873396
  0.2246538654   0.3297886264   0.1594227425
  0.7242749839   0.3287543011   0.1584306777
  0.9739175932   0.5797152007   0.1593551610
  0.9746300908   0.4214217373   0.3413763462
  0.2268175694   0.6757790996   0.3436282491
  0.7191909644   0.6675496753   0.3455754100
  0.9734629181   0.9200005392   0.3412895356
  0.9734560130   0.0787071324   0.6587248837
  0.2249852676   0.3299705906   0.6587689741
  0.7230383179   0.3287280338   0.6587163903
  0.9746526646   0.5800802889   0.6586258839
  0.9739927835   0.4206512217   0.8412971887
  0.2246466143   0.6703723466   0.8405740202
  0.7242874087   0.6703212198   0.8415661761
  0.9739202184   0.9203474870   0.8406445776
  0.4738312936   0.5787518682   0.1570456498
  0.7235753258   0.8295574432   0.1594232480
  0.2237783393   0.8298049764   0.1585707045
  0.4740520116   0.0796979432   0.1591449833
  0.4701772934   0.9192796970   0.3435164436
  0.7230318169   0.1700197668   0.3412905242
  0.2249833306   0.1711737531   0.3412248722
  0.4793622536   0.4274226587   0.3455130359
  0.4793753959   0.5819374714   0.6545027208
  0.7191855828   0.8219822399   0.6544348759
  0.2268136460   0.8321319231   0.6563939820
  0.4701779624   0.0757486543   0.6564931426
  0.4738423623   0.9217018598   0.8429621043
  0.7235717919   0.1700932602   0.8405753853
  0.2237631372   0.1711745414   0.8414156533
  0.4740494370   0.4205245958   0.8408441535
  0.0811154990   0.1431994346   0.0002106689
  0.8671156342   0.8569475393   0.0002188749
  0.8671170570   0.3567046145   0.9997538048
  0.0811165654   0.6429825175   0.9997696900
  0.1174953286   0.3934155796   0.5000090768
  0.3337624338   0.6058510387   0.5000035023
  0.8248652000   0.6046545852   0.5000045816
  0.6194058353   0.3990961643   0.5000189901
  0.0804563482   0.1437795328   0.5000138122
  0.8685289140   0.8565686864   0.5000152302
  0.8677532783   0.3561312875   0.5000045085
  0.0805286962   0.6433871554   0.5000148057
  0.1171217306   0.3932929970   0.0005743942
  0.3305951436   0.6065412868   0.0001734605
  0.8310580458   0.6073079908   0.0006378464
  0.6176227599   0.3937193160   0.0002445231
  0.5804913463   0.6434440980   0.9999549796
  0.3677269478   0.3566019482   0.0000686937
  0.3677291976   0.8565326846   0.9999107399
  0.5804935174   0.1434825943   0.0000415163
  0.6181254033   0.8906050054   0.5000074641
  0.8305198642   0.1067729993   0.5000030311
  0.3292520127   0.1020127850   0.5000068377
  0.1221609479   0.8949897784   0.5000137750
  0.3677184904   0.3553639480   0.5000009020
  0.4387377294   0.7854674184   0.5000229299
  0.5805469452   0.1437138237   0.5000070182
  0.6176188984   0.8934747495   0.9997543451
  0.8310601349   0.1066535047   0.9993433026
  0.3305959925   0.1063530971   0.9998047667
  0.1171154713   0.8927126167   0.9994066842
  0.2241253939   0.2493321596   0.5000093385
  0.4741707685   0.4999661921   0.9998949195
  0.9740203241   0.5001651075   0.0003589988
  0.2272157177   0.7477634981   0.5000132373
  0.2244628010   0.2502978279   0.0004294374
  0.4707349695   0.4967801579   0.5000151684
  0.9731006799   0.5002286875   0.5000114708
  0.2244650449   0.7498645514   0.9995404350
  0.7271393005   0.7533991644   0.5000248903
  0.9740200001   0.9997933818   0.9996052499
  0.4741722640   0.0000630663   0.0000778130
  0.7237140230   0.2509824828   0.5000147656
  0.7237773820   0.7500668836   0.0003545175
  0.9747816798   0.0001279576   0.5000163634
  0.4763404996  -0.0029642246   0.5000143120
  0.7237772922   0.2496859257   0.9996080055
  0.9741305025   0.3255819560   0.1517216424
  0.2242563498   0.5767763625   0.1530566094
  0.7238908997   0.5767458030   0.1539513544
  0.9740875538   0.8260499595   0.1515390343
  0.9740547132   0.1740225322   0.3479346544
  0.2230844628   0.4236432339   0.3480448332
  0.7255925013   0.4215663792   0.3463909580
  0.9749882988   0.6738839841   0.3475753144
  0.9740574307   0.3260831652   0.6520632101
  0.2230690844   0.5756148897   0.6519578045
  0.7256155197   0.5751991666   0.6536109030
  0.9749989346   0.8263118675   0.6524384891
  0.9740899869   0.1744775903   0.8484563159
  0.2238789408   0.4244309271   0.8486217676
  0.7243517403   0.4241708699   0.8486278366
  0.9741392663   0.6738881215   0.8482653740
  0.4740018490   0.8262726677   0.1527038947
  0.7243444592   0.0755418894   0.1513582014
  0.2238871180   0.0758047042   0.1513602952
  0.4742379343   0.3269926541   0.1537781760
  0.4764424117   0.6663892301   0.3375393873
  0.7244438632   0.9250684326   0.3480251804
  0.2228844280   0.9245280268   0.3463997269
  0.4739872011   0.1728178623   0.3474107815
  0.4764393926   0.8288579603   0.6624568521
  0.7244540935   0.0770323223   0.6519826847
  0.2228747218   0.0781110738   0.6536067878
  0.4739830283   0.3254019647   0.6525875776
  0.4742372693   0.6732395055   0.8462124753
  0.7239044057   0.9227989444   0.8460463748
  0.2242452642   0.9237255311   0.8469382476
  0.4739947404   0.1735389050   0.8472924925
