# Compound: Fe24Li31O16S24. Old comment:
   1.0000000000000000     
     7.8866538400000001   -7.9475566999999998    0.0601846200000000
     7.3433505600000002    7.9467915400000004   -2.8792872599999999
    -0.0478291200000000   -0.1071026000000000   10.5527142699999992
   Fe   Li   O    S 
    24    31    16    24
Direct
  0.2610106344205978  0.6644987917319319  0.6020107229549018
  0.2342915458317754  0.3366892101462794  0.3969771538084762
  0.1234779807218370  0.3244595942160022  0.8044559884908741
  0.3831430358945793  0.5853486439192890  0.8139047540071558
  0.8743284067218651  0.1748524804262741  0.1987482341647648
  0.1247921538787339  0.4217713685369013  0.1861925480915734
  0.0230387345318705  0.9230422787094273  0.6006666638735861
  0.9797552280287951  0.5844656086695367  0.3991289736599188
  0.8748409704279522  0.5768923549737062  0.7972760725941336
  0.1245598401982993  0.8279304259257675  0.8157180002519061
  0.6291609333761998  0.4279647698883199  0.1950604569143455
  0.8733539641763520  0.6686496314121469  0.1832129060166272
  0.7640957191398881  0.1616758390928705  0.6022343206160364
  0.7352257019356118  0.8301711329492721  0.3989174581463468
  0.6280201361993871  0.8246582099661066  0.7975690035860892
  0.8741748912541678  0.0782503207740586  0.8150589802415716
  0.3783931717594962  0.6770931802586129  0.1992553719271300
  0.6247242952020056  0.9207703091591941  0.1855590254073489
  0.4957105901711593  0.3945700521288072  0.5961218023332397
  0.4839323340662504  0.0805883715720851  0.3979574458810881
  0.3734433907805947  0.0746855576184577  0.8041303498507826
  0.6317319755519173  0.3367656457039883  0.8138295769082264
  0.1248694455717696  0.9241429572918780  0.1971430137672220
  0.3743876462606255  0.1713401417389777  0.1860914544140355
  0.4891599103221919  0.4901025232827123  0.9988760030048178
  0.0251003904164311  0.5247862438493438  0.9968285018924038
  0.9780209663051161  0.3824816790798319  0.6074127100895952
  0.0218730006938061  0.1209224359631614  0.3929120229255594
  0.8765169800011655  0.3380775822132426  0.8432011455691399
  0.1279189208263277  0.5649847469196555  0.7779839333631486
  0.1224118949436880  0.1617483514223287  0.1538698747303960
  0.3784441920627877  0.4330527215664197  0.2178308207117245
  0.2276296058656656  0.7247789900650469  0.0050524798364208
  0.7702020802058639  0.7689911309070337  0.9929936483771901
  0.6397219844925163  0.5757233065751565  0.7438298816119122
  0.7707723553951764  0.3794896731398892  0.3961581719536629
  0.8702511938704943  0.8060825143341837  0.7445891200241224
  0.8747410151634255  0.4124363084387081  0.1540814958896047
  0.1269957031795792  0.6842563654221838  0.2299194614774110
  0.9695790577791832  0.9706311626416793  0.0013884276434052
  0.5255550850735123  0.0238647980027191  0.9972844203157105
  0.4804665447228160  0.8790778990748370  0.6081570793009627
  0.5282741538711946  0.6166064896593254  0.3957148490293377
  0.3773959710462316  0.8372897297898330  0.8438565406584491
  0.6205460746411632  0.0723504886465774  0.7780779770475789
  0.6261209572513476  0.6637478313743729  0.1528196811447078
  0.8762086486359802  0.9324925750553982  0.2274516876943544
  0.7247001715701024  0.2280349525159933  0.0041949477078285
  0.2730307826918631  0.2726323579764846  0.9982019198253547
  0.2337495126572154  0.1369041657745753  0.6087451787568539
  0.2739554165759030  0.8722562107480379  0.3936960844525002
  0.1250748056139500  0.0863725547444374  0.8454924854642892
  0.3737309179961407  0.3220016847675420  0.7912179933289720
  0.3734961658555431  0.9124420227543844  0.1534433265244344
  0.6270184449621532  0.1847703634646225  0.2288507877847135
  0.0008056207446375  0.4522503570413736  0.8069353324607135
  0.2502850195805985  0.7023796709569298  0.8114864555470285
  0.9994108785135888  0.0481107906978996  0.1932168813235118
  0.2493661400466060  0.2974788014510180  0.1905794141968375
  0.7541914929321819  0.7061245670476428  0.8075924376966409
  0.9978392898192068  0.9487714690164523  0.8046473004846133
  0.7505478490113684  0.3003337111385417  0.1953870827708900
  0.0014403799805290  0.5484340520210692  0.1919476551785050
  0.5003656153379965  0.9526447685029837  0.8073888453075841
  0.7494762020931007  0.2030609832886009  0.8109468006734419
  0.5036371807380212  0.5510923727538199  0.1931787585336543
  0.7505245237763605  0.7981220358754999  0.1911049733412249
  0.2489077158794022  0.2008977295994419  0.8083584950530622
  0.5030009567189060  0.4533471238490898  0.8005272099172226
  0.2508406628947501  0.7992404131876796  0.1961528424100135
  0.4998231201581749  0.0487009267233335  0.1924796804060268
  0.0002858797965625  0.2496211242005281  0.9993354577808989
  0.2527331255480735  0.4981522189122303  0.9982653182969068
  0.0050863582880636  0.3462913209709253  0.3660391839780587
  0.2477268791366222  0.5852553919451770  0.3653359427797316
  0.9962311505983131  0.1544608219367077  0.6338939276214342
  0.2578386263689829  0.4104390458334575  0.6321236859055734
  0.7513537683959323  0.4982432823669233  0.0007687945442574
  0.0023947854411475  0.7502833494631954  0.0034838471103100
  0.7571969625273779  0.5980172804159881  0.3640356988437996
  0.9949081554291330  0.8373532057515186  0.3687775895890139
  0.7500717359931549  0.3963934544365133  0.6310325657914012
  0.0148194318385638  0.6578467777647821  0.6313600744044652
  0.4977341801856636  0.7517389215827449  0.0034620583245460
  0.7489391854982448  0.0030683534611563  0.0027826644788150
  0.5056251994793619  0.8472011616847274  0.3681079185825540
  0.7449307101535591  0.0865765794990108  0.3663868574222685
  0.4886268249895693  0.6586536565513038  0.6321664224818406
  0.7502020993882065  0.9222648993302700  0.6317863422772009
  0.2495411257498288  0.0002701764303738 -0.0000136526071595
  0.4989982792097651  0.2522526587631113  0.9987492715126333
  0.2544054089984458  0.0969150372238293  0.3664760761567282
  0.4945101302110737  0.3386741191645249  0.3628033891907489
  0.2459765833907432  0.9046090945752547  0.6340882985924643
  0.5019706831635766  0.1661383291984067  0.6321939689150720

             NaN             NaN             NaN
             NaN             NaN             NaN
             NaN             NaN             NaN
             NaN             NaN             NaN
             NaN             NaN             NaN
             NaN             NaN             NaN
             NaN             NaN             NaN
             NaN             NaN             NaN
             NaN             NaN             NaN
             NaN             NaN             NaN
             NaN             NaN             NaN
             NaN             NaN             NaN
             NaN             NaN             NaN
             NaN             NaN             NaN
             NaN             NaN             NaN
             NaN             NaN             NaN
             NaN             NaN             NaN
             NaN             NaN             NaN
             NaN             NaN             NaN
             NaN             NaN             NaN
             NaN             NaN             NaN
             NaN             NaN             NaN
             NaN             NaN             NaN
             NaN             NaN             NaN
             NaN             NaN             NaN
             NaN             NaN             NaN
             NaN             NaN             NaN
             NaN             NaN             NaN
             NaN             NaN             NaN
             NaN             NaN             NaN
             NaN             NaN             NaN
             NaN             NaN             NaN
             NaN             NaN             NaN
             NaN             NaN             NaN
             NaN             NaN             NaN
             NaN             NaN             NaN
             NaN             NaN             NaN
             NaN             NaN             NaN
             NaN             NaN             NaN
             NaN             NaN             NaN
             NaN             NaN             NaN
             NaN             NaN             NaN
             NaN             NaN             NaN
             NaN             NaN             NaN
             NaN             NaN             NaN
             NaN             NaN             NaN
             NaN             NaN             NaN
             NaN             NaN             NaN
             NaN             NaN             NaN
             NaN             NaN             NaN
             NaN             NaN             NaN
             NaN             NaN             NaN
             NaN             NaN             NaN
             NaN             NaN             NaN
             NaN             NaN             NaN
             NaN             NaN             NaN
             NaN             NaN             NaN
             NaN             NaN             NaN
             NaN             NaN             NaN
             NaN             NaN             NaN
             NaN             NaN             NaN
             NaN             NaN             NaN
             NaN             NaN             NaN
             NaN             NaN             NaN
             NaN             NaN             NaN
             NaN             NaN             NaN
             NaN             NaN             NaN
             NaN             NaN             NaN
             NaN             NaN             NaN
             NaN             NaN             NaN
             NaN             NaN             NaN
             NaN             NaN             NaN
             NaN             NaN             NaN
             NaN             NaN             NaN
             NaN             NaN             NaN
             NaN             NaN             NaN
             NaN             NaN             NaN
             NaN             NaN             NaN
             NaN             NaN             NaN
             NaN             NaN             NaN
             NaN             NaN             NaN
             NaN             NaN             NaN
             NaN             NaN             NaN
             NaN             NaN             NaN
             NaN             NaN             NaN
             NaN             NaN             NaN
             NaN             NaN             NaN
             NaN             NaN             NaN
             NaN             NaN             NaN
             NaN             NaN             NaN
             NaN             NaN             NaN
             NaN             NaN             NaN
             NaN             NaN             NaN
             NaN             NaN             NaN
             NaN             NaN             NaN
