# Compound: Fe24Li31O16S24. Old comment: Fe24Li31O16S24
  1.0000000000
  7.8866538400  -7.9475567000   0.0601846200
  7.3433505600   7.9467915400  -2.8792872600
 -0.0478291200  -0.1071026000  10.5527142700
Fe    Li    O     S
   24    31    16    24
Direct
  0.2610372243   0.6641769183   0.6020727258
  0.2336951967   0.3359773976   0.3970774508
  0.1236689898   0.3245446492   0.8041855804
  0.3832889033   0.5855608059   0.8140885287
  0.8743525024   0.1748855707   0.1987474747
  0.1250005204   0.4220027149   0.1863352971
  0.0223512449   0.9224415842   0.6009122276
  0.9801338009   0.5848544976   0.3991585129
  0.8747857204   0.5767983842   0.7971338688
  0.1246590357   0.8280925187   0.8158633575
  0.6293151679   0.4280747428   0.1950004473
  0.8733801566   0.6686402303   0.1831617861
  0.7638109486   0.1615113525   0.6022274852
  0.7350757971   0.8300154147   0.3987652377
  0.6279390164   0.8244832739   0.7972800707
  0.8743071559   0.0783915310   0.8152354288
  0.3785533916   0.6772122568   0.1990637261
  0.6247662987   0.9208244331   0.1856024942
  0.4956208151   0.3947380246   0.5960738295
  0.4837064336   0.0805583612   0.3980103854
  0.3736405121   0.0749081445   0.8040296821
  0.6318048922   0.3367675320   0.8138106200
  0.1249743347   0.9242965384   0.1972196539
  0.3746041583   0.1716089169   0.1861543291
  0.4877830534   0.4885738551  -0.0010898046
  0.0248435946   0.5245086728   0.9967495522
  0.9778925895   0.3822607123   0.6073454735
  0.0215953501   0.1209519219   0.3929220311
  0.8767020427   0.3379212515   0.8429109101
  0.1279085579   0.5652842401   0.7782964059
  0.1224432680   0.1618003379   0.1536711501
  0.3785039074   0.4335437846   0.2191642580
  0.2277017832   0.7249638213   0.0050287846
  0.7703315608   0.7691861779   0.9929208713
  0.6395286117   0.5756477956   0.7446619160
  0.7704489567   0.3796670852   0.3963201560
  0.8701852255   0.8062328593   0.7453388283
  0.8749483498   0.4124942388   0.1543399827
  0.1270124282   0.6843542218   0.2295618218
  0.9694582419   0.9705226483   0.0015463764
  0.5254121535   0.0235197265   0.9972391375
  0.4800079691   0.8790661607   0.6081223451
  0.5291029383   0.6174220383   0.3956553041
  0.3772546611   0.8375475184   0.8437361828
  0.6207897867   0.0722890622   0.7783353614
  0.6260939890   0.6633008003   0.1512692349
  0.8762638062   0.9324223279   0.2275413481
  0.7248647672   0.2281715875   0.0042004876
  0.2731656484   0.2728815255   0.9982009506
  0.2319004296   0.1347744696   0.6087909578
  0.2736437214   0.8714084888   0.3937304659
  0.1251270001   0.0865476436   0.8460344826
  0.3735587659   0.3216463463   0.7902196168
  0.3734675978   0.9126717645   0.1535662541
  0.6271497366   0.1847766861   0.2289258689
  1.0009044786   0.4522357139   0.8067195191
  0.2503872818   0.7025656903   0.8115819398
 -0.0005346200   0.0481445809   0.1932115999
  0.2494904986   0.2976770330   0.1908545515
  0.7541185140   0.7060646499   0.8076674771
  0.9978397661   0.9489027365   0.8051099952
  0.7506278003   0.3003751980   0.1953371162
  0.0015656532   0.5485266845   0.1919412292
  0.5003948923   0.9526345080   0.8071738585
  0.7496068455   0.2030600788   0.8109899987
  0.5037000742   0.5510817110   0.1929482308
  0.7504534459   0.7979964013   0.1909409648
  0.2489005126   0.2008661633   0.8081352836
  0.5028652131   0.4532304235   0.8005582330
  0.2509159716   0.7993484430   0.1960159207
  0.4998512512   0.0487984200   0.1926180075
  0.0004877579   0.2498526537   0.9994034827
  0.2526896487   0.4981913481   0.9980898845
  0.0050495132   0.3464146170   0.3661032544
  0.2476824650   0.5858446195   0.3653091393
  0.9962268348   0.1543348292   0.6339433498
  0.2578734681   0.4110199302   0.6319697031
  0.7516572482   0.4981212692   0.0006209302
  0.0024367801   0.7502641570   0.0034812582
  0.7574188657   0.5980257258   0.3640160059
  0.9950078684   0.8373104029   0.3687675559
  0.7501562814   0.3964458215   0.6311731065
  0.0148036669   0.6582746046   0.6315062499
  0.4977328416   0.7520663836   0.0033288452
  0.7489229367   0.0031046309   0.0027519116
  0.5056139642   0.8472578752   0.3681676447
  0.7451625566   0.0865428360   0.3663036916
  0.4887584444   0.6586122457   0.6321094737
  0.7505919838   0.9221720039   0.6317096341
  0.2497291131   0.0005279028   1.0001021349
  0.4990029821   0.2520801624  -0.0014537658
  0.2543932704   0.0969412908   0.3667593651
  0.4949266059   0.3387654673   0.3628002571
  0.2458420499   0.9046584408   0.6342675396
  0.5024823744   0.1661444787   0.6321299734
