# Compound: Fe24Li31O16S24. Old comment:
   1.0000000000000000     
     7.8866538400000001   -7.9475566999999998    0.0601846200000000
     7.3433505600000002    7.9467915400000004   -2.8792872599999999
    -0.0478291200000000   -0.1071026000000000   10.5527142699999992
   Fe   Li   O    S 
    24    31    16    24
Direct
  0.2636581003786873  0.6589889999615268  0.6032291263377475
  0.2344667056422394  0.3344588213012356  0.3970189167397580
  0.1118971107531359  0.3231083066080728  0.8022913795748989
  0.3934686706698851  0.5857576832261869  0.8179852016482581
  0.8738948066554845  0.1726508218422010  0.1995404577583527
  0.1247814102902376  0.4216115554200039  0.1828422460514151
  0.0078131102688773  0.9133233684007566  0.6031373958992799
  0.9853123489953889  0.5809032790954899  0.3959345381402489
  0.9225825500565167  0.6130428628560556  0.7983300260080519
  0.1309760568937600  0.8341959935443690  0.8157311512552000
  0.6267980345810347  0.4272018091937846  0.2045295582490461
  0.8717666844803565  0.6682108714692249  0.1891381583484996
  0.7665696083149681  0.1603320911339660  0.6020292156146519
  0.7374701569938621  0.8385524067924509  0.3990975725002864
  0.6233438064258040  0.8113335148479460  0.8033872587741487
  0.8819655129836225  0.0953995803685174  0.8175678141348615
  0.3732549467334441  0.6726053561858916  0.1987330035021324
  0.6256191430581792  0.9192461261244652  0.1837550257387320
  0.5098344703474812  0.4143197684926087  0.6000119706847414
  0.4816014333473714  0.0797002099943665  0.3965780514627012
  0.3744401807471507  0.0749002450229821  0.8031635945885559
  0.6192173779459463  0.3155629503264175  0.8091413435758925
  0.1260958835872390  0.9263640570289340  0.2013336638300833
  0.3735143266688796  0.1695209585871033  0.1835490153170252
  0.4913489526336748  0.4830758728474978  0.0024450675645639
 -0.0065599534883486  0.4993206780122614  0.9878570955543661
  0.9584675137610279  0.3748439096868928  0.6172159579698936
  0.0189527503181139  0.1164125759476952  0.3919647355777049
  0.7162236023017781  0.5275380662427331  0.8172602198340558
  0.1510939066210485  0.5569962634179817  0.7892191604352345
  0.1217508755621644  0.1655403695804384  0.1544884445835999
  0.3755528754639090  0.4324565509460660  0.2245619318539744
  0.2258109115532077  0.7246775399128349  0.0042650917056756
  0.7550832950548795  0.7449259316607401  0.9937455113426337
  0.7255118376467142  0.6172757494021903  0.6101435201725895
  0.7771893418067448  0.3728978133221978  0.3903143213085650
  0.8609548604067031  0.8422765335901465  0.7936690766383735
  0.8732501132254078  0.4089298275720368  0.1600426605587711
  0.1235703969970399  0.6813776306454439  0.2177037268084040
  0.9760295659373530  0.9791158258679369  0.0039099644216202
  0.5306057087488456  0.0234862150701618  0.9964197569221245
  0.4797411571287269  0.8775827082648577  0.6076105872210149
  0.5199416235161963  0.6210995174493663  0.3949951497930762
  0.3785515618585009  0.8383441838428323  0.8490993793757017
  0.6272430847752694  0.0565001755964236  0.7732964336079661
  0.6208409049127293  0.6639161753163767  0.1675102147368136
  0.8768154298399243  0.9263577070153673  0.2121235273617838
  0.7311024365342295  0.2368367243936054  0.0014295141546495
  0.2737357827304469  0.2787473278328335  0.9957721410301414
  0.2265374942868402  0.1322682603388441  0.6072226687785593
  0.2703916603265950  0.8668927452842813  0.3927549616277319
  0.1265710703774671  0.0899707409978074  0.8475847709704901
  0.3664368009256842  0.3222598965038880  0.7768795699710906
  0.3765385840410360  0.9097806515876651  0.1542120934552018
  0.6264686828166981  0.1823166224969136  0.2300313268568120
  0.0076650038044509  0.4642491731896827  0.7982185827898655
  0.2561975986531707  0.7038811138860478  0.8118071630089606
  0.0014298676503772  0.0500074420751990  0.1929033339096632
  0.2488424421592169  0.2979777139525560  0.1902944130324670
  0.7635414047843248  0.6934723317457654  0.8012380419916871
  1.0012957493051007  0.9577216102986079  0.8118526504081943
  0.7491511052961687  0.2959308885778369  0.1974627771295136
  0.9978538736370292  0.5457240711160255  0.1910889648033726
  0.4982175879110212  0.9504800673086798  0.8072154303320732
  0.7413212337457771  0.1937816026912242  0.8049333549789864
  0.4985363791704056  0.5481818633325055  0.1985100456770579
  0.7485693994447316  0.7943017387914041  0.1923562608788435
  0.2493883106589538  0.2000043502657123  0.8065643564912133
  0.5027140981561161  0.4447426772610868  0.8056825279454721
  0.2513446330016380  0.7993544713595619  0.1929849374239538
  0.5002483263063137  0.0466263167769753  0.1911115670024143
  0.0020516851473058  0.2539466278115972  0.0004460912523942
  0.2515587261415862  0.5010305489545428 -0.0011181556782738
  0.0049188589207735  0.3472723818732519  0.3703891751678678
  0.2442062321563326  0.5880918119301506  0.3656761927658099
  0.9962350238519547  0.1529982900886371  0.6303495597030074
  0.2641070999830475  0.4153866975054489  0.6285420387695212
  0.7426455622875239  0.4948597367979167  0.0202666396993028
  0.0017693739085247  0.7545575157098823  0.0083652055640116
  0.7559825521746679  0.5976383945504918  0.3746888911547593
  0.9958733123704584  0.8391198419223643  0.3651987485746115
  0.7344604925083829  0.3865016284178835  0.6156144342878429
  0.0234696212770631  0.6795964338921083  0.6235917233242340
  0.5058355537642636  0.7508308752376704  0.0002675866891594
  0.7514266020608696  0.9955304071620391 -0.0011341796922742
  0.5042767055613848  0.8449461188859797  0.3666076542211446
  0.7442359705812559  0.0791026344615635  0.3661308634337609
  0.4970226355332973  0.6535262423728337  0.6310657637579763
  0.7583684209904782  0.9138933861244960  0.6317221756897119
  0.2539124262597102  0.0027090773956469  0.9958083159693019
  0.4938115758117859  0.2425987773109834 -0.0055728665340634
  0.2543661618821917  0.0959626744981504  0.3653799703387186
  0.4908828193986165  0.3328557443268855  0.3643448250928707
  0.2509556993343963  0.9102856167514810  0.6376626583518655
  0.4940923740320921  0.1525200249186627  0.6347379723878784

             NaN             NaN             NaN
             NaN             NaN             NaN
             NaN             NaN             NaN
             NaN             NaN             NaN
             NaN             NaN             NaN
             NaN             NaN             NaN
             NaN             NaN             NaN
             NaN             NaN             NaN
             NaN             NaN             NaN
             NaN             NaN             NaN
             NaN             NaN             NaN
             NaN             NaN             NaN
             NaN             NaN             NaN
             NaN             NaN             NaN
             NaN             NaN             NaN
             NaN             NaN             NaN
             NaN             NaN             NaN
             NaN             NaN             NaN
             NaN             NaN             NaN
             NaN             NaN             NaN
             NaN             NaN             NaN
             NaN             NaN             NaN
             NaN             NaN             NaN
             NaN             NaN             NaN
             NaN             NaN             NaN
             NaN             NaN             NaN
             NaN             NaN             NaN
             NaN             NaN             NaN
             NaN             NaN             NaN
             NaN             NaN             NaN
             NaN             NaN             NaN
             NaN             NaN             NaN
             NaN             NaN             NaN
             NaN             NaN             NaN
             NaN             NaN             NaN
             NaN             NaN             NaN
             NaN             NaN             NaN
             NaN             NaN             NaN
             NaN             NaN             NaN
             NaN             NaN             NaN
             NaN             NaN             NaN
             NaN             NaN             NaN
             NaN             NaN             NaN
             NaN             NaN             NaN
             NaN             NaN             NaN
             NaN             NaN             NaN
             NaN             NaN             NaN
             NaN             NaN             NaN
             NaN             NaN             NaN
             NaN             NaN             NaN
             NaN             NaN             NaN
             NaN             NaN             NaN
             NaN             NaN             NaN
             NaN             NaN             NaN
             NaN             NaN             NaN
             NaN             NaN             NaN
             NaN             NaN             NaN
             NaN             NaN             NaN
             NaN             NaN             NaN
             NaN             NaN             NaN
             NaN             NaN             NaN
             NaN             NaN             NaN
             NaN             NaN             NaN
             NaN             NaN             NaN
             NaN             NaN             NaN
             NaN             NaN             NaN
             NaN             NaN             NaN
             NaN             NaN             NaN
             NaN             NaN             NaN
             NaN             NaN             NaN
             NaN             NaN             NaN
             NaN             NaN             NaN
             NaN             NaN             NaN
             NaN             NaN             NaN
             NaN             NaN             NaN
             NaN             NaN             NaN
             NaN             NaN             NaN
             NaN             NaN             NaN
             NaN             NaN             NaN
             NaN             NaN             NaN
             NaN             NaN             NaN
             NaN             NaN             NaN
             NaN             NaN             NaN
             NaN             NaN             NaN
             NaN             NaN             NaN
             NaN             NaN             NaN
             NaN             NaN             NaN
             NaN             NaN             NaN
             NaN             NaN             NaN
             NaN             NaN             NaN
             NaN             NaN             NaN
             NaN             NaN             NaN
             NaN             NaN             NaN
             NaN             NaN             NaN
             NaN             NaN             NaN
