# Compound: Fe24Li31O16S24. Old comment: Li4Fe3S3O2 Enum Minimum PATH2 INIT FRAME 04
  1.0000000000
  7.8866538400  -7.9475567000   0.0601846200
  7.3433505600   7.9467915400  -2.8792872600
 -0.0478291200  -0.1071026000  10.5527142700
Fe    Li    O     S
   24    31    16    24
Direct
  0.2641813500   0.6646239933   0.6017305500
  0.2351276833   0.3349665667   0.3991774200
  0.1183050367   0.3237862000   0.8027462833
  0.3796547533   0.5807928233   0.8151078267
  0.8762056733   0.1754207967   0.1974742700
  0.1238429667   0.4200716000   0.1856534900
  0.0130729733  -0.0858891933   0.6019308400
 -0.0151880200   0.5845255600   0.3987434500
  0.8696383000   0.5682779633   0.8028020567
  0.1259965800   0.8301824600   0.8151386567
  0.6267457900   0.4260658267   0.1971916667
  0.8732514100   0.6698109167   0.1859417433
  0.7672417433   0.1683265833   0.6036927600
  0.7345366767   0.8344641133   0.3994005333
  0.6243129500   0.8217207500   0.8024863967
  0.8784803400   0.0863327533   0.8152900300
  0.3754885233   0.6747749533   0.1969037600
  0.6245178767  -0.0789789133   0.1856040467
  0.5154475567   0.4155589767   0.6027076000
  0.4848241200   0.0847155000   0.3993628567
  0.3745175433   0.0757589200   0.8023815067
  0.6335553933   0.3354802167   0.8152046600
  0.1248860100  -0.0759122467   0.1970214533
  0.3751138200   0.1713563900   0.1852795600
  0.4781307967   0.4763388467   0.0016670233
  0.0177375967   0.5172853700  -0.0064263067
 -0.0266695400   0.3766808133   0.6106993133
  0.0222417300   0.1205839500   0.3925668867
  0.7090077300   0.5050874833   0.8469457867
  0.1235975633   0.5672050067   0.7726930000
  0.1245203333   0.1619206200   0.1549429833
  0.3771903967   0.4330102433   0.2248704500
  0.2247616033   0.7246487567   0.0030662100
  0.7724712033   0.7689851533  -0.0049121833
  0.7266718767   0.6273421900   0.6093120833
  0.7730552367   0.3710164600   0.3917194900
  0.8738714533   0.8164542133   0.7741294467
  0.8740494400   0.4111489167   0.1506839533
  0.1260812367   0.6817945300   0.2235151400
 -0.0265540033  -0.0234723800   0.0033321933
  0.5264667667   0.0243257367  -0.0038507000
  0.4783045000   0.8795841867   0.6074274967
  0.5227228033   0.6205855033   0.3927995833
  0.3761073233   0.8381668367   0.8454122400
  0.6232391900   0.0655714633   0.7708045867
  0.6232205300   0.6627591067   0.1529793867
  0.8759249033  -0.0672132333   0.2251357300
  0.7284854167   0.2294706300   0.0004625467
  0.2741641600   0.2755745633  -0.0035946200
  0.2274247233   0.1309790233   0.6073393600
  0.2719384367   0.8702332133   0.3932187800
  0.1272505200   0.0870021033   0.8461779067
  0.3725513300   0.3167320267   0.7731417200
  0.3736817500  -0.0869834533   0.1552262733
  0.6272833433   0.1834050667   0.2251315400
  0.0018742833   0.4539868333   0.8035723467
  0.2507090500   0.7021562367   0.8090403367
  0.0004483800   0.0489810767   0.1946124667
  0.2502114167   0.2981946767   0.1925864133
  0.7518451933   0.7006491700   0.8050919733
 -0.0004571900  -0.0464769300   0.8093641300
  0.7512420267   0.2993240500   0.1933644500
 -0.0007409900   0.5469530667   0.1915815967
  0.5002712800  -0.0494015633   0.8060585167
  0.7460176800   0.1984141000   0.8063510533
  0.5007746333   0.5494687733   0.1939807633
  0.7494273400   0.7978070600   0.1925945200
  0.2479292867   0.2021325633   0.8064452600
  0.4993895500   0.4496644167   0.8076788500
  0.2504242667   0.7989953533   0.1940966600
  0.5001461867   0.0483020267   0.1924214867
  0.0018363500   0.2490367267   0.0020569167
  0.2503809500   0.5011719900   0.0023776933
  0.0051894333   0.3471313800   0.3688978667
  0.2450353600   0.5870132733   0.3664753467
 -0.0039084900   0.1519268567   0.6312691600
  0.2563598900   0.4144909733   0.6326935467
  0.7494726900   0.5016987533   0.0029546867
  0.0008589700   0.7515370933   0.0025550400
  0.7549799767   0.5967450067   0.3684812567
 -0.0050178100   0.8360277967   0.3664250167
  0.7447170933   0.4030129767   0.6299645367
  0.0069233133   0.6658010467   0.6326205633
  0.4992563567   0.7515658467   0.0009876200
  0.7499752667  -0.0001194767   0.0024595767
  0.5045937367   0.8465909500   0.3670920133
  0.7451312600   0.0873618167   0.3680375667
  0.4947144500   0.6538457367   0.6324188400
  0.7562016333  -0.0880106767   0.6330883833
  0.2504025900   0.0001229733  -0.0000186833
  0.4989321367   0.2499449667   0.0019710467
  0.2546965833   0.0964121800   0.3662661167
  0.4959464967   0.3375548933   0.3669331433
  0.2449795767  -0.0959941500   0.6337352533
  0.5030377733   0.1630174267   0.6328859100
